[TITLE]
;;Project Title/Notes
*MODEL: Sewer catchment model to simulate sewer discharge from Central Fehraltorf to the the treatment plant at ARA Fehraltorf. This model includes the observed transfer flows from RUMLIKON at location 'f02' (node 555) and RUSSIKON at location 'f03' (node 11d). The model is not complete and may still contain errors!
*TRANSFER FLOWS (f02 & f03): measured (in-)flows at f02 and f03. These observations are included as time series inflows (one *.dat file each transfer flow).
*CALIBRATION: Catchment outflow (link Link_2, leading to outfall node ARA_Fehraltorf) corresponds to the ARA inflow monitored by the plant operators (f00_qin_lps_utc0.dat). Some preliminary calibration was done for the period of May 2016 with r02 rain and ARA inflow observations.
*REFERENCE: Keller, C., Barrett, R., Blumensaat, F. (2018).
//Last revision: control rules for all pumps corrected! 12/10/2017 fbl & rb; 03/11/2017: sc slope correction, fbl//
//Last revision: Student thesis of Jonas Metzger (2018) joined Russikon to the Rumlikon area 15/06/2018, jr //

[OPTIONS]
;;Option             Value
FLOW_UNITS           LPS
INFILTRATION         HORTON
FLOW_ROUTING         DYNWAVE
LINK_OFFSETS         DEPTH
MIN_SLOPE            0
ALLOW_PONDING        YES
SKIP_STEADY_STATE    YES

START_DATE           01/31/2020
START_TIME           00:00:00
REPORT_START_DATE    02/01/2020
REPORT_START_TIME    00:00:00
END_DATE             02/10/2020
END_TIME             00:00:00
SWEEP_START          01/01
SWEEP_END            12/31
DRY_DAYS             0
REPORT_STEP          00:05:00
WET_STEP             00:00:15
DRY_STEP             00:15:00
ROUTING_STEP         0:00:12 
RULE_STEP            00:00:00

INERTIAL_DAMPING     PARTIAL
NORMAL_FLOW_LIMITED  BOTH
FORCE_MAIN_EQUATION  D-W
VARIABLE_STEP        0.75
LENGTHENING_STEP     0
MIN_SURFAREA         1.14
MAX_TRIALS           8
HEAD_TOLERANCE       0.0015
SYS_FLOW_TOL         5
LAT_FLOW_TOL         5
MINIMUM_STEP         0.5
THREADS              8

[EVAPORATION]
;;Data Source    Parameters
;;-------------- ----------------
MONTHLY          0.09   0.56   1.22   2.81   3.47   4.6    4.6    4.04   2.91   0.85   0.38   0.09  
DRY_ONLY         NO

[RAINGAGES]
;;Name           Format    Interval SCF      Source    
;;-------------- --------- ------ ------ ----------
rain_gauge       VOLUME    00:01    1.0      FILE       "r02_mm_utc0_1min_feb16_apr20.dat" r02        MM   

[SUBCATCHMENTS]
;;Name           Rain Gage        Outlet           Area     %Imperv  Width    %Slope   CurbLen  SnowPack        
;;-------------- ---------------- ---------------- -------- -------- -------- -------- -------- ----------------
A0005RT          rain_gauge       102a             0.07919  32       28.1412  5.48     0                        
A0010RT          rain_gauge       102c             0.14477  32       38.0482  4.93     0                        
A0015RT          rain_gauge       603              0.39542  32       62.8821  6.88     0                        
A0020RT          rain_gauge       603              0.37105  32       60.9142  7.21     0                        
A0025RT          rain_gauge       602              0.80382  32       89.6562  6.86     0                        
A0030RT          rain_gauge       605              0.92626  32       96.2425  5.87     0                        
A0035RT          rain_gauge       102d             0.11466  32       33.8609  6.8      0                        
A0040RT          rain_gauge       6_SBW            0.16359  32       40.4463  7.47     0                        
A0045RT          rain_gauge       102a             0.05273  32       22.9625  5.73     0                        
A0065RT          rain_gauge       13d              0.44036  27       66.3594  13.73    0                        
A0070RT          rain_gauge       12b              0.74122  27       86.0943  14.46    0                        
A0075RT          rain_gauge       11g              0.64356  27       80.222   20.39    0                        
A0080RT          rain_gauge       13               0.15228  27       39.0233  7.97     0                        
A0085RT          rain_gauge       13               0.05881  32       24.2509  4.72     0                        
A0090RT          rain_gauge       12               0.01696  32       13.0211  5.6      0                        
A0095RT          rain_gauge       608              0.29996  32       54.7687  5.98     0                        
A0100RT          rain_gauge       608              0.33702  32       58.0538  7.6      0                        
A0105RT          rain_gauge       601              0.35195  32       59.325   5.76     0                        
A0110RT          rain_gauge       601              0.08899  32       29.8311  7.03     0                        
A0115RT          rain_gauge       5h               0.5304   32       72.8288  5.32     0                        
A0120RT          rain_gauge       5h               0.51442  32       71.7234  3.26     0                        
A0125RT          rain_gauge       102k             0.14552  32       38.1473  6.2      0                        
A0130RT          rain_gauge       102d             0.05218  32       22.8434  4.78     0                        
A0135RT          rain_gauge       102e             0.2145   32       46.3142  3.39     0                        
A0140RT          rain_gauge       102e             0.03321  32       18.2221  8.56     0                        
A0145RT          rain_gauge       102f             0.51632  32       71.8556  5.66     0                        
A0150RT          rain_gauge       102g             0.0717   32       26.7765  6.65     0                        
A0155RT          rain_gauge       102g             0.07737  32       27.8156  6.23     0                        
A0160RT          rain_gauge       13               0.03993  32       19.9827  2.33     0                        
A0165RT          rain_gauge       13               0.26648  27       51.6219  5.41     0                        
B0005RT          rain_gauge       386              0.96529  32       98.249   6.52     0                        
B0010RT          rain_gauge       384              0.27066  32       52.0245  10.34    0                        
B0015RT          rain_gauge       382b             2.7833   32       166.8317 4.3      0                        
B0016RT          rain_gauge       381b             0        0        74.3101  15.09    0                        
B0020RT          rain_gauge       381b             0        0        100.9355 15       0                        
B0025RT          rain_gauge       145              0        0        71.7639  16.55    0                        
B0030RT          rain_gauge       17b              0.49822  32       70.5845  10.04    0                        
B0035RT          rain_gauge       17               0        0        61.274   4.36     0                        
B0040RT          rain_gauge       146              0.39176  27       62.591   19.38    0                        
B0045RT          rain_gauge       145              0.16549  27       40.6811  4.94     0                        
B0050RT          rain_gauge       147              0.18175  27       42.6325  12.34    0                        
B0055RT          rain_gauge       147              0.01522  32       12.3372  18.37    0                        
B0060RT          rain_gauge       144              0.90662  27       95.2168  21.75    0                        
B0065RT          rain_gauge       148              0.11454  27       33.8438  8.7      0                        
B0066RT          rain_gauge       148              0        0        27.3371  4.1      0                        
B0070RT          rain_gauge       14               0.10458  27       32.3392  3.54     0                        
B0075RT          rain_gauge       149              0.1251   32       35.3695  11.98    0                        
B0080RT          rain_gauge       149              0.10066  32       31.7267  6.84     0                        
B0085RT          rain_gauge       149              0.07164  32       26.7657  16.89    0                        
B0090RT          rain_gauge       149              0.22288  32       47.2106  6.53     0                        
B0095RT          rain_gauge       14b              0.7942   32       89.118   4.13     0                        
B0100RT          rain_gauge       18               0.30611  32       55.3273  4.39     0                        
B0105RT          rain_gauge       17               0.31734  32       56.3326  9.11     0                        
B0110RT          rain_gauge       386              0.29691  32       54.4899  6.79     0                        
B0115RT          rain_gauge       156SW            0.09038  32       30.0639  4.22     0                        
B0120RT          rain_gauge       22a              0.16355  32       40.4419  11.55    0                        
B0125RT          rain_gauge       22a              0.18757  45       43.3094  5.04     0                        
B0126RT          rain_gauge       22a              0        0        25.9459  6.86     0                        
B0130RT          rain_gauge       22a              0.1744   45       41.7608  3.28     0                        
B0135RT          rain_gauge       23               0.57269  45       75.6764  3.74     0                        
B0140RT          rain_gauge       14               0.279    32       52.82    6.36     0                        
B0145RT          rain_gauge       8a               0.30872  32       55.5622  3.49     0                        
B0146RT          rain_gauge       9                0        0        40.4821  3.97     0                        
B0150RT          rain_gauge       385              0.49085  32       70.061   8.67     0                        
B0155RT          rain_gauge       386              0.34503  32       58.7394  7.09     0                        
B0160RT          rain_gauge       387              0.4746   32       68.891   4.59     0                        
B0161RT          rain_gauge       389              0        0        84.3093  3.75     0                        
B0165RT          rain_gauge       VS_22            0.20371  32       45.1345  6.13     0                        
B0170RT          rain_gauge       9                0.12752  32       35.7101  4.18     0                        
B0175RT          rain_gauge       9                0.15919  32       39.8986  3.66     0                        
B0180RT          rain_gauge       15a              0.38505  32       62.0528  4.76     0                        
B0181RT          rain_gauge       15a              0        0        44.2437  8.34     0                        
B0182RT          rain_gauge       15               0        0        53.5153  2.38     0                        
B0185RT          rain_gauge       VS_22            0.0701   32       26.4756  4.7      0                        
B0186RT          rain_gauge       VS_22            0        0        19.2285  3.41     0                        
B0190RT          rain_gauge       VS_22            0.10757  45       32.798   3.37     0                        
B0195RT          rain_gauge       VS_22            0.01867  45       13.6649  3.66     0                        
B0200RT          rain_gauge       VS_22            0.07081  45       26.6107  3.77     0                        
B0205RT          rain_gauge       9                0.09302  45       30.4991  3.58     0                        
B0210RT          rain_gauge       150              0.11976  32       34.6062  3.21     0                        
B0215RT          rain_gauge       22a              0.12965  45       36.0071  4.17     0                        
B0220RT          rain_gauge       150b             0.32922  45       57.3779  6        0                        
B0225RT          rain_gauge       23               0.19073  32       43.6721  4.25     0                        
B0226RT          rain_gauge       23               0        0        31.96    3.25     0                        
B0227RT          rain_gauge       23               0        0        30.7422  3.86     0                        
B0230RT          rain_gauge       374              0.64827  32       80.5155  11.05    0                        
B0235RT          rain_gauge       124a             0.1362   32       36.9058  4.75     0                        
B0245RT          rain_gauge       124              0.32866  32       57.3289  4.77     0                        
B0255RT          rain_gauge       104a             0.13244  32       36.3921  8.02     0                        
B0260RT          rain_gauge       104b             0.25879  32       50.8711  6.19     0                        
B0265RT          rain_gauge       104e             0.31353  32       55.9936  3.65     0                        
B0280RT          rain_gauge       122              0.30489  32       55.2169  8.61     0                        
B0290RT          rain_gauge       121              0.32961  32       57.4114  11.6     0                        
B0295RT          rain_gauge       153              0.01395  45       11.8092  3.54     0                        
B0300RT          rain_gauge       150b             0.35396  45       59.4947  4.12     0                        
B0305RT          rain_gauge       106              0.29178  45       54.017   4.83     0                        
B0310RT          rain_gauge       153              0.21886  32       46.783   4.37     0                        
B0315RT          rain_gauge       156SW            0.3949   45       62.8412  6.25     0                        
B0320RT          rain_gauge       156SW            0.14086  32       37.531   5.33     0                        
B0325RT          rain_gauge       125_SBW          0.05402  32       23.2417  2.55     0                        
B0330RT          rain_gauge       8                0.47587  32       68.9831  4.14     0                        
B0335RT          rain_gauge       105              0.42522  32       65.2093  3.4      0                        
B0340RT          rain_gauge       150              0.53867  32       73.3938  8.32     0                        
B0345RT          rain_gauge       106              0.15027  45       38.7644  4.34     0                        
B0350RT          rain_gauge       104d             0.16603  32       40.7471  7.84     0                        
B0355RT          rain_gauge       104c             0.66809  32       81.7367  7.92     0                        
B0360RT          rain_gauge       7a               0.95043  32       97.4899  5.12     0                        
B0365RT          rain_gauge       14b              0.50249  32       70.8868  6.58     0                        
B0370RT          rain_gauge       14a              0.41378  32       64.326   7.7      0                        
B0375RT          rain_gauge       6b               0.40362  32       63.5312  7.48     0                        
B0380RT          rain_gauge       6a               0.49346  32       70.2466  6.05     0                        
B0390RT          rain_gauge       128a_Blindsch.   0.53998  32       73.4831  4.11     0                        
B0405RT          rain_gauge       106              0.01075  32       10.3657  4.98     0                        
B0415RT          rain_gauge       156SW            0.41185  32       64.1755  5.21     0                        
B0440RT          rain_gauge       14               0.22105  32       47.0157  3.49     0                        
B0460R           rain_gauge       103b             0.1338   45       36.5787  7.1      0                        
B0465R           rain_gauge       103b             0.46037  45       67.8506  7.1      0                        
B0470R           rain_gauge       103c             0.54502  45       73.8257  7.1      0                        
B0475R           rain_gauge       138_SBW          0.07539  45       27.4564  3.26     0                        
B0480R           rain_gauge       128a_Blindsch.   0.51292  32       71.6185  9.66     0                        
B0490R           rain_gauge       103b             0.0496   45       22.2717  7.1      0                        
B0520RT          rain_gauge       18               0.61295  32       78.2913  8.17     0                        
C0010RT          rain_gauge       42               0.60735  32       77.9329  5.96     0                        
C0020RT          rain_gauge       38               0.6102   45       78.1153  5.63     0                        
C0040RT          rain_gauge       40               0.16742  45       40.9172  5.7      0                        
C0050RT          rain_gauge       40b              0.23717  45       48.7004  6.97     0                        
C0055RT          rain_gauge       40b              0.52488  45       72.4489  9.6      0                        
C0060RT          rain_gauge       1102             0.41354  32       64.307   7.31     0                        
C0065RT          rain_gauge       1100             0        0        32.8355  2.93     0                        
C0066RT          rain_gauge       36               0        0        42.0412  9.92     0                        
C0070RT          rain_gauge       36               0.28677  45       53.5511  8.33     0                        
C0075RT          rain_gauge       35a              0.23795  32       48.7798  4.88     0                        
C0080RT          rain_gauge       40               0.22665  45       47.6074  10.75    0                        
C0081RT          rain_gauge       40               0        0        46.6212  14.16    0                        
C0085RT          rain_gauge       39               0.37043  45       60.8628  3.34     0                        
C0120RT          rain_gauge       34               0.54353  32       73.7245  3.87     0                        
C0125RT          rain_gauge       35a              0.53811  32       73.356   5.87     0                        
C0130RT          rain_gauge       35a              0.01025  32       10.1234  9.3      0                        
C0135RT          rain_gauge       285              0.43772  26       66.1603  9.45     0                        
C0140RT          rain_gauge       284a             1.107    26       105.214  6.15     0                        
C0145RT          rain_gauge       285              0.53905  26       73.4197  6.99     0                        
C0150RT          rain_gauge       376a             0.89638  32       94.6771  10.1     0                        
C0155RT          rain_gauge       377a             0.06542  32       25.5774  7.05     0                        
C0160RT          rain_gauge       211              0.18614  45       43.1443  10.45    0                        
C0165RT          rain_gauge       210              0.28809  45       53.6742  12.6     0                        
C0170RT          rain_gauge       208              0.43085  45       65.6389  12.48    0                        
C0175RT          rain_gauge       207              0.14251  45       37.7501  7.77     0                        
C0180RT          rain_gauge       207b             0.12482  45       35.3304  4.06     0                        
C0185RT          rain_gauge       377              0.13816  32       37.1695  9.58     0                        
C0190RT          rain_gauge       381b             0        0        37.0869  7.87     0                        
C0200RT          rain_gauge       37a              0.38735  32       62.2374  8.65     0                        
C0205RT          rain_gauge       27b              0.52494  32       72.4528  8.89     0                        
C0210RT          rain_gauge       27b              0.19238  32       43.8608  7.25     0                        
C0215RT          rain_gauge       287              0.27522  32       52.4612  4.91     0                        
C0220RT          rain_gauge       36               0.17931  32       42.3445  8.49     0                        
C0225RT          rain_gauge       28c              0.18827  32       43.3899  8.38     0                        
C0230RT          rain_gauge       28c              0.11525  45       33.9491  3.37     0                        
C0235RT          rain_gauge       28b              0.24102  32       49.0942  7.39     0                        
C0236RT          rain_gauge       28c              0        0        32.8425  10.03    0                        
C0237RT          rain_gauge       28c              0        0        24.3972  20.65    0                        
C0240RT          rain_gauge       377              0.03733  45       19.3205  8.86     0                        
C0245RT          rain_gauge       378              0.24531  32       49.5288  12.44    0                        
C0250RT          rain_gauge       377              0.2085   45       45.6614  7.43     0                        
C0255RT          rain_gauge       379              0.0949   45       30.8055  7.46     0                        
C0260RT          rain_gauge       37               0.32839  45       57.305   3.22     0                        
C0265RT          rain_gauge       37a              0.14178  45       37.6538  4.3      0                        
C0270RT          rain_gauge       VS_22            0.01314  45       11.4618  4.87     0                        
C0275RT          rain_gauge       37a              0.01342  45       11.5844  3.33     0                        
C0280RT          rain_gauge       38b              0.47194  45       68.6979  5.42     0                        
C0281RT          rain_gauge       40               0        0        73.2691  5.85     0                        
C0285RT          rain_gauge       28c              0.2247   45       47.4028  11.92    0                        
C0290RT          rain_gauge       28               0.34894  32       59.0709  7.86     0                        
C0295RT          rain_gauge       284a             1.2281   26       110.819  3.31     0                        
C0320RT          rain_gauge       35a              0.18556  32       43.0763  3.56     0                        
C0325RT          rain_gauge       40               0.03572  32       18.9009  2.75     0                        
C0385R           rain_gauge       446a             0.38077  45       61.7068  4.79     0                        
C0390R           rain_gauge       446b             0.06331  32       25.1617  7.1      0                        
C0400R           rain_gauge       137              0.66734  45       81.6911  7.1      0                        
C0425R           rain_gauge       161              0.26813  45       51.7816  7.1      0                        
C0450R           rain_gauge       451c             0.1478   32       38.4448  7.1      0                        
C0455R           rain_gauge       446b             0.33703  32       58.0539  7.1      0                        
C0505R           rain_gauge       447b             0.64589  32       80.3671  7.1      0                        
C0550RT          rain_gauge       381              0.46572  32       68.2435  13.36    0                        
D0040RT          rain_gauge       33a              0.1959   32       44.2606  6.03     0                        
D0045RT          rain_gauge       575              0.21054  32       45.8847  4.76     0                        
D0050RT          rain_gauge       56a              0.26833  32       51.8002  6.67     0                        
D0055RT          rain_gauge       27               0.06349  32       25.1977  10.29    0                        
D0060RT          rain_gauge       27               0.11272  32       33.574   5.43     0                        
D0065RT          rain_gauge       33b              0.36752  32       60.6235  4.52     0                        
D0105RT          rain_gauge       566              0        0        93.084   3.25     0                        
D0110RT          rain_gauge       566              0        0        175.0046 1.88     0                        
D0115RT          rain_gauge       565              1.0136   26       100.6762 2.47     0                        
D0120RT          rain_gauge       565              0.93158  26       96.5186  7.09     0                        
D0125RT          rain_gauge       567              0.52353  26       72.3553  12.59    0                        
D0140RT          rain_gauge       33b              0.33554  32       57.9255  4.54     0                        
D0145RT          rain_gauge       26a              0        0        65.2472  2.88     0                        
D0150RT          rain_gauge       27               0.09407  32       30.6712  3.5      0                        
D0405RT          rain_gauge       566              0        0        122.544  5.98     0                        
E0010RT          rain_gauge       597m             0        0        31.4951  2.32     0                        
E0015RT          rain_gauge       597m             0.05967  45       24.4265  3.77     0                        
E0020RT          rain_gauge       591m             0.14724  45       38.3715  6.79     0                        
E0030RT          rain_gauge       597n             0.01413  45       11.885   6.7      0                        
E0035RT          rain_gauge       597e             0.26889  45       51.8547  7.9      0                        
E0040RT          rain_gauge       597m             0.17021  45       41.2567  7.9      0                        
E0045RT          rain_gauge       597n             0.18748  45       43.2985  8.61     0                        
E0050RT          rain_gauge       597d             0.14083  45       37.5271  5.24     0                        
E0055RT          rain_gauge       597b             0.58563  45       76.5263  8.7      0                        
E0060RT          rain_gauge       591p             0.08031  45       28.3386  6.16     0                        
E0070RT          rain_gauge       591o             0.07596  45       27.5614  4.25     0                        
E0085RT          rain_gauge       597i             0.77288  45       87.9137  4.01     0                        
E0090RT          rain_gauge       597_SBW          1.2674   32       112.5809 8.19     0                        
E0095RT          rain_gauge       597g             0.90254  45       95.0021  11.46    0                        
E0135RT          rain_gauge       597f             1.1566   45       107.5467 7.87     0                        
E0145RT          rain_gauge       597m             0        0        41.6727  3.08     0                        
E0150RT          rain_gauge       597e             0        0        39.402   9.58     0                        
E0155RT          rain_gauge       596__Spez.sch.   0.866    45       93.059   10.74    0                        
E0160RT          rain_gauge       596d             0.50117  45       70.7935  11.89    0                        
E0165RT          rain_gauge       596              0        0        49.6794  4.43     0                        
E0170RT          rain_gauge       591q             0.07505  45       27.3948  3.9      0                        
E0175RT          rain_gauge       597k             1.0391   45       101.9373 2.83     0                        
E0180RT          rain_gauge       597_SBW          0.17687  45       42.0556  5.74     0                        
E0190RT          rain_gauge       597n             0.04024  45       20.0595  9.62     0                        
F0005RT          rain_gauge       805j             1.5608   45       124.9338 6.45     0                        
F0010RT          rain_gauge       805h             2.1117   45       145.3165 5.49     0                        
F0015RT          rain_gauge       801e             1.5044   45       122.653  5.4      0                        
F0020RT          rain_gauge       805a             0.62013  45       78.7485  5.76     0                        
F0025RT          rain_gauge       805c             0.49087  45       70.0619  4.73     0                        
F0030RT          rain_gauge       805b             0.06369  45       25.2359  5.07     0                        
F0035RT          rain_gauge       805d             0.43718  45       66.1198  5.5      0                        
F0040RT          rain_gauge       805e             0.66036  45       81.2625  7.51     0                        
F0045RT          rain_gauge       805k             1.268    45       112.6051 4.25     0                        
F0050RT          rain_gauge       805g             0.90294  45       95.023   3.38     0                        
F0055RT          rain_gauge       805_SBW          0.56518  45       75.1786  3.58     0                        
F0060RT          rain_gauge       805_SBW          0.44668  45       66.8344  8.15     0                        
F0065RT          rain_gauge       804              0.53799  45       73.3478  2.81     0                        
F0070RT          rain_gauge       802              1.3112   45       114.506  2.39     0                        
F0075RT          rain_gauge       802              0.69726  45       83.5018  2.63     0                        
F0080RT          rain_gauge       801h             0.67151  45       81.9454  2.83     0                        
F0085RT          rain_gauge       802              0.29552  45       54.3619  2.84     0                        
F0090RT          rain_gauge       801d             0.12416  45       35.2362  1.95     0                        
F0095RT          rain_gauge       801d             0.21074  45       45.9069  2.14     0                        
F0105RT          rain_gauge       801c             0.63622  45       79.7634  9.59     0                        
F0110RT          rain_gauge       P366             0.61334  45       78.3158  9.35     0                        
F0120RT          rain_gauge       801g             0.62443  45       79.021   4.48     0                        
F0125RT          rain_gauge       801c             0.46993  45       68.5516  8.67     0                        
Kempttalstrasse  rain_gauge       5g_SBW           0        0        88.0994  3.73     0                        
Sub_B10          rain_gauge       B10              0.03     32       17.32050808 2.467261068 0                        
Sub_B101         rain_gauge       B101             0.18     32       42.42640687 4.454016131 0                        
Sub_B102         rain_gauge       B102             0.03     32       17.32050808 1.310201573 0                        
Sub_B103         rain_gauge       B103             0.08     32       28.28427125 5.872344215 0                        
Sub_B104         rain_gauge       B104             0.21     32       45.82575695 4.503481338 0                        
Sub_B106         rain_gauge       B106             0.01     32       10       0.982318346 0                        
Sub_B107         rain_gauge       B107             0.13     32       36.05551275 5.984908183 0                        
Sub_B11          rain_gauge       B11              0.09     32       30       0.341518654 0                        
Sub_B111         rain_gauge       B111             0.13     32       36.05551275 1.549243521 0                        
Sub_B12          rain_gauge       B12              0.06     32       24.49489743 3.10868847 0                        
Sub_B13          rain_gauge       B13              0.12     32       34.64101615 5.604841439 0                        
Sub_B131         rain_gauge       B131             0.39     32       62.44997998 2.351971348 0                        
Sub_B132         rain_gauge       B132             0.02     32       14.14213562 3.479122354 0                        
Sub_B133R        rain_gauge       B133R            0.02     32       14.14213562 1.961271887 0                        
Sub_B134R        rain_gauge       B134R            0.08     32       28.28427125 2.09616996 0                        
Sub_B135         rain_gauge       B135             0.03     32       17.32050808 2.439788673 0                        
Sub_B135R        rain_gauge       B135R            0.03     32       17.32050808 0.826838326 0                        
Sub_B136         rain_gauge       B136             0.02     32       14.14213562 2.222146904 0                        
Sub_B136R        rain_gauge       B136R            0.03     32       17.32050808 5.063796558 0                        
Sub_B138         rain_gauge       B138             0.02     32       14.14213562 5.751138495 0                        
Sub_B138R        rain_gauge       B138R            0.03     32       17.32050808 3.426421623 0                        
Sub_B139         rain_gauge       B139             0.04     32       20       0.373455557 0                        
Sub_B139R        rain_gauge       B139R            0.06     32       24.49489743 3.454648637 0                        
Sub_B140         rain_gauge       B140             0.03     32       17.32050808 3.00177328 0                        
Sub_B141         rain_gauge       B141             0.02     32       14.14213562 4.87969401 0                        
Sub_B142         rain_gauge       B142             0.08     32       28.28427125 5.23249234 0                        
Sub_B143         rain_gauge       B143             0.1      32       31.6227766 1.099137614 0                        
Sub_B151         rain_gauge       B151             0.05     32       22.36067977 3.003035621 0                        
Sub_B152         rain_gauge       B152             0.05     32       22.36067977 5.404788962 0                        
Sub_B153         rain_gauge       B153             0.09     32       30       5.877756411 0                        
Sub_B161         rain_gauge       B161             0.09     32       30       5.34333414 0                        
Sub_B171         rain_gauge       B171             0.01     32       10       0.275436191 0                        
Sub_B172         rain_gauge       B172             0.05     32       22.36067977 0.144160792 0                        
Sub_B173         rain_gauge       B173             0.1      32       31.6227766 2.30217292 0                        
Sub_B181         rain_gauge       B181             0.06     32       24.49489743 5.956525612 0                        
Sub_B191         rain_gauge       B191             0.18     32       42.42640687 5.240149639 0                        
Sub_B201         rain_gauge       B201             0.02     32       14.14213562 4.549144595 0                        
Sub_B202         rain_gauge       B202             0.03     32       17.32050808 4.182945418 0                        
Sub_B203         rain_gauge       B203             0.03     32       17.32050808 4.88381404 0                        
Sub_B204         rain_gauge       B204             0.02     32       14.14213562 5.566099542 0                        
Sub_B205         rain_gauge       B205             0.07     32       26.45751311 1.761937829 0                        
Sub_B21          rain_gauge       B21              0.06     32       24.49489743 3.897127202 0                        
Sub_B31          rain_gauge       B31              0.07     32       26.45751311 0.227273292 0                        
Sub_B4           rain_gauge       B4               0.06     32       24.49489743 4.336174104 0                        
Sub_B41          rain_gauge       B41              0.08     32       28.28427125 2.11591629 0                        
Sub_B42          rain_gauge       B42              0.07     32       26.45751311 3.457356258 0                        
Sub_B43          rain_gauge       B43              0.06     32       24.49489743 4.706851826 0                        
Sub_B5           rain_gauge       B5               0.1      32       31.6227766 1.110360767 0                        
Sub_B51          rain_gauge       B51              0.08     32       28.28427125 3.117938581 0                        
Sub_B52          rain_gauge       B52              0.16     32       40       3.306877863 0                        
Sub_B54          rain_gauge       B54              0.01     32       10       2.334328385 0                        
Sub_B55          rain_gauge       B55              0.04     32       20       2.80260551 0                        
Sub_B56          rain_gauge       B56              0.09     32       30       4.087233758 0                        
Sub_B57          rain_gauge       B57              0.09     32       30       4.445990298 0                        
Sub_B59          rain_gauge       B59              0.08     32       28.28427125 3.467083238 0                        
Sub_B6           rain_gauge       B6               0.03     32       17.32050808 3.690462307 0                        
Sub_B60          rain_gauge       B60              0.07     32       26.45751311 3.829123129 0                        
Sub_B61          rain_gauge       B61              0.03     32       17.32050808 1.197451393 0                        
Sub_B62          rain_gauge       B62              0.16     32       40       0.573975227 0                        
Sub_B7           rain_gauge       B7               0.12     32       34.64101615 0.929680751 0                        
Sub_B71          rain_gauge       B71              0.03     32       17.32050808 5.745925492 0                        
Sub_B72          rain_gauge       B72              0.11     32       33.1662479 5.772864495 0                        
Sub_B73          rain_gauge       B73              0.1      32       31.6227766 5.816107066 0                        
Sub_B74          rain_gauge       B74              0.06     32       24.49489743 0.815562937 0                        
Sub_B8           rain_gauge       B8               0.07     32       26.45751311 1.703703876 0                        
Sub_B81          rain_gauge       B81              0.04     32       20       2.793402586 0                        
Sub_B82          rain_gauge       B82              0.03     32       17.32050808 4.274740722 0                        
Sub_B83          rain_gauge       B83              0.09     32       30       1.371554744 0                        
Sub_B84          rain_gauge       B84              0.03     32       17.32050808 2.907617001 0                        
Sub_B85          rain_gauge       B85              0.07     32       26.45751311 2.445385167 0                        
Sub_B9           rain_gauge       B9               0.04     32       20       4.478057774 0                        
Sub_B91          rain_gauge       B91              0.03     32       17.32050808 1.541207574 0                        
Sub_B93          rain_gauge       B93              0.07     32       26.45751311 2.07747514 0                        
Sub_B94          rain_gauge       B94              0.07     32       26.45751311 4.892582323 0                        
Sub_B95          rain_gauge       B95              0.03     32       17.32050808 1.710088634 0                        
Sub_C10          rain_gauge       C10              0.14     32       37.41657387 5.82073756 0                        
Sub_C11          rain_gauge       C11              0.21     32       45.82575695 4.308076693 0                        
Sub_C2           rain_gauge       C2               0.01     32       10       4.540812958 0                        
Sub_C25R         rain_gauge       C25R             0.08     32       28.28427125 2.244112584 0                        
Sub_C3           rain_gauge       C3               0.05     32       22.36067977 5.076611192 0                        
Sub_C31          rain_gauge       C31              0.11     32       33.1662479 4.755315177 0                        
Sub_C32          rain_gauge       C32              0.02     32       14.14213562 2.733845065 0                        
Sub_C33          rain_gauge       C33              0.05     32       22.36067977 1.697676961 0                        
Sub_C34          rain_gauge       C34              0.1      32       31.6227766 2.016764776 0                        
Sub_C35          rain_gauge       C35              0.1      32       31.6227766 1.359333705 0                        
Sub_C36          rain_gauge       C36              0.15     32       38.72983346 5.547959944 0                        
Sub_C37          rain_gauge       C37              0.07     32       26.45751311 2.965151108 0                        
Sub_C37R         rain_gauge       C37R             0.14     32       37.41657387 4.866246622 0                        
Sub_C38          rain_gauge       C38              0.02     32       14.14213562 0.273346906 0                        
Sub_C38R         rain_gauge       C38R             0.16     32       40       1.983037022 0                        
Sub_C39          rain_gauge       C39              0.13     32       36.05551275 3.197766592 0                        
Sub_C39R         rain_gauge       C39R             0.03     32       17.32050808 2.202691486 0                        
Sub_C4           rain_gauge       C4               0.05     32       22.36067977 0.331738303 0                        
Sub_C40          rain_gauge       C40              0.08     32       28.28427125 0.391536628 0                        
Sub_C40R         rain_gauge       C40R             0.03     32       17.32050808 4.783411405 0                        
Sub_C41          rain_gauge       C41              0.09     32       30       3.515424481 0                        
Sub_C43          rain_gauge       C43              0.06     32       24.49489743 5.473022415 0                        
Sub_C5           rain_gauge       C5               0.09     32       30       3.727581272 0                        
Sub_C51          rain_gauge       C51              0.03     32       17.32050808 3.322862614 0                        
Sub_C51R         rain_gauge       C51R             0.05     32       22.36067977 3.831798362 0                        
Sub_C55R         rain_gauge       C55R             0.08     32       28.28427125 5.360565929 0                        
Sub_C6           rain_gauge       C6               0.1      32       31.6227766 4.515214656 0                        
Sub_C61          rain_gauge       C61              0.16     32       40       4.08363366 0                        
Sub_C7           rain_gauge       C7               0.07     32       26.45751311 2.747156461 0                        
Sub_C8           rain_gauge       C8               0.16     32       40       2.651221221 0                        
Sub_C9           rain_gauge       C9               0.16     32       40       4.717200596 0                        
Sub_D10          rain_gauge       D10              0.12     32       34.64101615 2.096122574 0                        
Sub_D11          rain_gauge       D11              0.01     32       10       3.434432137 0                        
Sub_D111R        rain_gauge       D111R            0.09     32       30       2.889941761 0                        
Sub_D112R        rain_gauge       D112R            0.05     32       22.36067977 1.032755048 0                        
Sub_D114R        rain_gauge       D114R            0.06     32       24.49489743 5.466177248 0                        
Sub_D121R        rain_gauge       D121R            0.16     32       40       2.251772024 0                        
Sub_D131R        rain_gauge       D131R            0.27     32       51.96152423 1.711279658 0                        
Sub_D132R        rain_gauge       D132R            0.08     32       28.28427125 2.181595694 0                        
Sub_D134R        rain_gauge       D134R            0.22     32       46.9041576 3.71976754 0                        
Sub_D136R        rain_gauge       D136R            0.25     32       50       1.938592817 0                        
Sub_D137R        rain_gauge       D137R            0.07     32       26.45751311 3.183482507 0                        
Sub_D151R        rain_gauge       D151R            1.35     32       116.1895004 0.852250878 0                        
Sub_D2           rain_gauge       D2               0.06     32       24.49489743 3.87366692 0                        
Sub_D21          rain_gauge       D21              0.06     32       24.49489743 0.515566012 0                        
Sub_D22          rain_gauge       D22              0.05     32       22.36067977 4.180206475 0                        
Sub_D23          rain_gauge       D23              0.04     32       20       5.415727948 0                        
Sub_D24          rain_gauge       D24              0.06     32       24.49489743 5.540243001 0                        
Sub_D3           rain_gauge       D3               0.08     32       28.28427125 2.204527733 0                        
Sub_D30R         rain_gauge       D30R             0.09     32       30       2.599729708 0                        
Sub_D31R         rain_gauge       D31R             0.14     32       37.41657387 5.47827341 0                        
Sub_D32R         rain_gauge       D32R             0.1      32       31.6227766 4.018679235 0                        
Sub_D33          rain_gauge       D33              0.07     32       26.45751311 0.454070903 0                        
Sub_D36          rain_gauge       D36              0.08     32       28.28427125 2.915725884 0                        
Sub_D37          rain_gauge       D37              0.06     32       24.49489743 4.64230851 0                        
Sub_D39          rain_gauge       D39              0.2      32       44.72135955 1.371542827 0                        
Sub_D4           rain_gauge       D4               0.08     32       28.28427125 1.604554213 0                        
Sub_D40          rain_gauge       D40              0.16     32       40       1.196780095 0                        
Sub_D41          rain_gauge       D41              0.02     32       14.14213562 0.842066931 0                        
Sub_D42          rain_gauge       D42              0.05     32       22.36067977 0.23218049 0                        
Sub_D5           rain_gauge       D5               0.04     32       20       5.714088638 0                        
Sub_D51          rain_gauge       D51              0.24     32       48.98979486 1.76816303 0                        
Sub_D52          rain_gauge       D52              0.06     32       24.49489743 3.465792183 0                        
Sub_D53          rain_gauge       D53              0.07     32       26.45751311 2.905373481 0                        
Sub_D54          rain_gauge       D54              0.05     32       22.36067977 1.611152431 0                        
Sub_D6           rain_gauge       D6               0.21     32       45.82575695 1.274177506 0                        
Sub_D61          rain_gauge       D61              0.04     32       20       5.948209733 0                        
Sub_D63          rain_gauge       D63              0.09     32       30       2.970993323 0                        
Sub_D64          rain_gauge       D64              0.03     32       17.32050808 2.140036281 0                        
Sub_D65          rain_gauge       D65              0.07     32       26.45751311 4.499265197 0                        
Sub_D66          rain_gauge       D66              0.06     32       24.49489743 2.734460487 0                        
Sub_D7           rain_gauge       D7               0.08     32       28.28427125 1.891286304 0                        
Sub_D71          rain_gauge       D71              0.09     32       30       3.362098523 0                        
Sub_D8           rain_gauge       D8               0.03     32       17.32050808 3.763203056 0                        
Sub_D9           rain_gauge       D9               0.17     32       41.23105626 0.621120638 0                        
Sub_E44          rain_gauge       E44              0.07     32       26.45751311 2.420219122 0                        
Sub_E45          rain_gauge       E45              0.03     32       17.32050808 4.339986455 0                        
Sub_E46          rain_gauge       E46              0.05     32       22.36067977 0.789970423 0                        
Sub_E47          rain_gauge       E47              0.06     32       24.49489743 5.083922403 0                        
Sub_E48          rain_gauge       E48              0.01     32       10       3.529466442 0                        
Sub_E49          rain_gauge       E49              0.09     32       30       2.623474617 0                        
Sub_E51          rain_gauge       E51              0.08     32       28.28427125 3.809716511 0                        
Sub_E68          rain_gauge       E68              0.03     32       17.32050808 0.497920444 0                        
Sub_E69          rain_gauge       E69              0.05     32       22.36067977 1.900367083 0                        
Sub_E70          rain_gauge       E70              0.06     32       24.49489743 2.790167502 0                        
Sub_E71          rain_gauge       E71              0.02     32       14.14213562 4.910785058 0                        
Sub_E73          rain_gauge       E73              0.01     32       10       1.126962803 0                        
Sub_E74          rain_gauge       E74              0.04     32       20       5.858089846 0                        
Sub_E75          rain_gauge       E75              0.04     32       20       3.831191161 0                        
Sub_E76          rain_gauge       E76              0.03     32       17.32050808 5.792538881 0                        
Sub_E81          rain_gauge       E81              0.08     32       28.28427125 1.4354376 0                        
Sub_E82          rain_gauge       E82              0.1      32       31.6227766 4.792975894 0                        
Sub_E83          rain_gauge       E83              0.04     32       20       3.711499903 0                        
Sub_E84          rain_gauge       E84              0.21     32       45.82575695 1.988276307 0                        
Sub_E85          rain_gauge       E85              0.07     32       26.45751311 5.539919178 0                        
Sub_E86          rain_gauge       E86              0.04     32       20       2.606624318 0                        
Sub_E91          rain_gauge       E91              0.02     32       14.14213562 4.222820458 0                        
Sub_E92          rain_gauge       E92              0.02     32       14.14213562 3.286139546 0                        
Sub_E93          rain_gauge       E93              0.05     32       22.36067977 4.037328061 0                        
Sub_E94          rain_gauge       E94              0.03     32       17.32050808 1.850724838 0                        
Sub_F10          rain_gauge       F10              0.02     32       14.14213562 3.670182959 0                        
Sub_F141         rain_gauge       F141             0.12     32       34.64101615 3.551904628 0                        
Sub_F142         rain_gauge       F142             0.13     32       36.05551275 4.238804887 0                        
Sub_F143         rain_gauge       F143             0.22     32       46.9041576 4.996124812 0                        
Sub_F144         rain_gauge       F144             0.01     32       10       3.910566101 0                        
Sub_F145         rain_gauge       F145             0.03     32       17.32050808 5.922605415 0                        
Sub_F146         rain_gauge       F146             0.09     32       30       3.917771409 0                        
Sub_F152         rain_gauge       F152             0.06     32       24.49489743 0.756865749 0                        
Sub_F153         rain_gauge       F153             0.07     32       26.45751311 0.417228668 0                        
Sub_F154         rain_gauge       F154             0.04     32       20       5.549767889 0                        
Sub_F161         rain_gauge       F161             0.09     32       30       2.221907446 0                        
Sub_F162         rain_gauge       F162             0.1      32       31.6227766 1.495299493 0                        
Sub_F181         rain_gauge       F181             0.04     32       20       1.776967143 0                        
Sub_F182         rain_gauge       F182             0.13     32       36.05551275 5.604910064 0                        
Sub_F183         rain_gauge       F183             0.07     32       26.45751311 3.876871102 0                        
Sub_F184         rain_gauge       F184             0.06     32       24.49489743 3.483640529 0                        
Sub_F185         rain_gauge       F185             0.05     32       22.36067977 2.112200377 0                        
Sub_F191         rain_gauge       F191             0.03     32       17.32050808 4.460164867 0                        
Sub_F192         rain_gauge       F192             0.04     32       20       1.403319354 0                        
Sub_F201         rain_gauge       F201             0.03     32       17.32050808 5.382230851 0                        
Sub_F202         rain_gauge       F202             0.05     32       22.36067977 1.472219312 0                        
Sub_F209R        rain_gauge       F209R            0.08     32       28.28427125 0.535099328 0                        
Sub_F21          rain_gauge       F21              0.02     32       14.14213562 5.7027783 0                        
Sub_F210R        rain_gauge       F210R            0.05     32       22.36067977 4.944256662 0                        
Sub_F211R        rain_gauge       F211R            0.05     32       22.36067977 5.287108236 0                        
Sub_F212R        rain_gauge       F212R            0.03     32       17.32050808 5.491719359 0                        
Sub_F22          rain_gauge       F22              0.03     32       17.32050808 0.594668981 0                        
Sub_F221R        rain_gauge       F221R            0.13     32       36.05551275 3.624872234 0                        
Sub_F222R        rain_gauge       F222R            0.04     32       20       1.413661153 0                        
Sub_F23          rain_gauge       F23              0.06     32       24.49489743 0.744856068 0                        
Sub_F231R        rain_gauge       F231R            0.03     32       17.32050808 5.084357892 0                        
Sub_F24          rain_gauge       F24              0.04     32       20       5.127092675 0                        
Sub_F241         rain_gauge       F241             0.16     32       40       4.679917381 0                        
Sub_F242         rain_gauge       F242             0.25     32       50       4.960888909 0                        
Sub_F243         rain_gauge       F243             0.03     32       17.32050808 2.351321512 0                        
Sub_F244         rain_gauge       F244             0.2      32       44.72135955 2.729464766 0                        
Sub_F248         rain_gauge       F248             0.04     32       20       0.249455254 0                        
Sub_F249         rain_gauge       F249             0.15     32       38.72983346 0.52907016 0                        
Sub_F25          rain_gauge       F25              0.02     32       14.14213562 3.144049969 0                        
Sub_F250         rain_gauge       F250             0.6      32       77.45966692 2.138921394 0                        
Sub_F251         rain_gauge       F251             0.11     32       33.1662479 5.608854338 0                        
Sub_F253         rain_gauge       F253             0.03     32       17.32050808 3.374307079 0                        
Sub_F254         rain_gauge       F254             0.13     32       36.05551275 5.979312443 0                        
Sub_F255         rain_gauge       F255             0.02     32       14.14213562 5.824438068 0                        
Sub_F26          rain_gauge       F26              0.07     32       26.45751311 5.426390684 0                        
Sub_F27          rain_gauge       F27              0.04     32       20       2.03333287 0                        
Sub_F31          rain_gauge       F31              0.11     32       33.1662479 5.854270775 0                        
Sub_F32          rain_gauge       F32              0.08     32       28.28427125 5.533785679 0                        
Sub_F41          rain_gauge       F41              0.08     32       28.28427125 1.569550155 0                        
Sub_F42          rain_gauge       F42              0.04     32       20       0.294126221 0                        
Sub_F6           rain_gauge       F6               0.26     32       50.99019514 4.764483291 0                        
Sub_F61          rain_gauge       F61              0.02     32       14.14213562 0.647153645 0                        
Sub_F62          rain_gauge       F62              0.02     32       14.14213562 3.327606102 0                        
Sub_F63          rain_gauge       F63              0.12     32       34.64101615 0.290479447 0                        
Sub_F63.1        rain_gauge       F63              0.05     32       22.36067977 5.572697777 0                        
Sub_F64          rain_gauge       F64              0.08     32       28.28427125 0.169520642 0                        
Sub_F64.1        rain_gauge       F64              0.09     32       30       0.608896871 0                        
Sub_F65          rain_gauge       F65              0.13     32       36.05551275 5.548831502 0                        
Sub_F7           rain_gauge       F7               0.05     32       22.36067977 3.933314112 0                        
Sub_F8           rain_gauge       F8               0.03     32       17.32050808 5.215758159 0                        
Sub_F81          rain_gauge       F81              0.07     32       26.45751311 0.441435285 0                        
Sub_F81.1        rain_gauge       F81              0.03     32       17.32050808 4.410667595 0                        
Sub_F82          rain_gauge       F82              0.03     32       17.32050808 0.219075897 0                        
Sub_F83          rain_gauge       F83              0.04     32       20       2.618758404 0                        
Sub_F84          rain_gauge       F84              0.34     32       58.30951895 2.457024905 0                        
Sub_F85          rain_gauge       F85              0.09     32       30       4.928271269 0                        
Sub_F86          rain_gauge       F86              0.18     32       42.42640687 4.379247111 0                        
Sub_F86.1        rain_gauge       F86              0.04     32       20       3.620506597 0                        
Sub_F87          rain_gauge       F87              0.01     32       10       1.419779708 0                        
Sub_F88          rain_gauge       F88              0.22     32       46.9041576 3.959933034 0                        
Sub_F89          rain_gauge       F89              0.05     32       22.36067977 0.354264011 0                        
Sub_F90          rain_gauge       F90              0.04     32       20       5.310491782 0                        
Sub_F91          rain_gauge       F91              0.06     32       24.49489743 1.273513465 0                        
Sub_F92          rain_gauge       F92              0.12     32       34.64101615 5.444973322 0                        
Sub_F93          rain_gauge       F93              0.14     32       37.41657387 4.044593375 0                        
Sub_F94          rain_gauge       F94              0.09     32       30       1.831915503 0                        
A0050RT          rain_gauge       10c              0.53744  27       73.3102  52       0                        
A0055T           rain_gauge       411              1.7901   0        133.7947 13       0                        

[SUBAREAS]
;;Subcatchment   N-Imperv   N-Perv     S-Imperv   S-Perv     PctZero    RouteTo    PctRouted 
;;-------------- ---------- ---------- ---------- ---------- ---------- ---------- ----------
A0005RT          0.016      0.25       1.778      5.08       25         OUTLET    
A0010RT          0.016      0.25       1.778      5.08       25         OUTLET    
A0015RT          0.016      0.25       1.778      5.08       25         OUTLET    
A0020RT          0.016      0.25       1.778      5.08       25         OUTLET    
A0025RT          0.016      0.25       1.778      5.08       25         OUTLET    
A0030RT          0.016      0.25       1.778      5.08       25         OUTLET    
A0035RT          0.016      0.25       1.778      5.08       25         OUTLET    
A0040RT          0.016      0.25       1.778      5.08       25         OUTLET    
A0045RT          0.016      0.25       1.778      5.08       25         OUTLET    
A0065RT          0.016      0.25       1.778      5.08       25         OUTLET    
A0070RT          0.016      0.25       1.778      5.08       25         OUTLET    
A0075RT          0.016      0.25       1.778      5.08       25         OUTLET    
A0080RT          0.016      0.25       1.778      5.08       25         OUTLET    
A0085RT          0.016      0.25       1.778      5.08       25         OUTLET    
A0090RT          0.016      0.25       1.778      5.08       25         OUTLET    
A0095RT          0.016      0.25       1.778      5.08       25         OUTLET    
A0100RT          0.016      0.25       1.778      5.08       25         OUTLET    
A0105RT          0.016      0.25       1.778      5.08       25         OUTLET    
A0110RT          0.016      0.25       1.778      5.08       25         OUTLET    
A0115RT          0.016      0.25       1.778      5.08       25         OUTLET    
A0120RT          0.016      0.25       1.778      5.08       25         OUTLET    
A0125RT          0.016      0.25       1.778      5.08       25         OUTLET    
A0130RT          0.016      0.25       1.778      5.08       25         OUTLET    
A0135RT          0.016      0.25       1.778      5.08       25         OUTLET    
A0140RT          0.016      0.25       1.778      5.08       25         OUTLET    
A0145RT          0.016      0.25       1.778      5.08       25         OUTLET    
A0150RT          0.016      0.25       1.778      5.08       25         OUTLET    
A0155RT          0.016      0.25       1.778      5.08       25         OUTLET    
A0160RT          0.016      0.25       1.778      5.08       25         OUTLET    
A0165RT          0.016      0.25       1.778      5.08       25         OUTLET    
B0005RT          0.016      0.25       1.778      5.08       25         OUTLET    
B0010RT          0.016      0.25       1.778      5.08       25         OUTLET    
B0015RT          0.016      0.25       1.778      5.08       25         OUTLET    
B0016RT          0.016      0.25       1.778      5.08       25         OUTLET    
B0020RT          0.016      0.25       1.778      5.08       25         OUTLET    
B0025RT          0.016      0.25       1.778      5.08       25         OUTLET    
B0030RT          0.016      0.25       1.778      5.08       25         OUTLET    
B0035RT          0.016      0.25       1.778      5.08       25         OUTLET    
B0040RT          0.016      0.25       1.778      5.08       25         OUTLET    
B0045RT          0.016      0.25       1.778      5.08       25         OUTLET    
B0050RT          0.016      0.25       1.778      5.08       25         OUTLET    
B0055RT          0.016      0.25       1.778      5.08       25         OUTLET    
B0060RT          0.016      0.25       1.778      5.08       25         OUTLET    
B0065RT          0.016      0.25       1.778      5.08       25         OUTLET    
B0066RT          0.016      0.25       1.778      5.08       25         OUTLET    
B0070RT          0.016      0.25       1.778      5.08       25         OUTLET    
B0075RT          0.016      0.25       1.778      5.08       25         OUTLET    
B0080RT          0.016      0.25       1.778      5.08       25         OUTLET    
B0085RT          0.016      0.25       1.778      5.08       25         OUTLET    
B0090RT          0.016      0.25       1.778      5.08       25         OUTLET    
B0095RT          0.016      0.25       1.778      5.08       25         OUTLET    
B0100RT          0.016      0.25       1.778      5.08       25         OUTLET    
B0105RT          0.016      0.25       1.778      5.08       25         OUTLET    
B0110RT          0.016      0.25       1.778      5.08       25         OUTLET    
B0115RT          0.016      0.25       1.778      5.08       25         OUTLET    
B0120RT          0.016      0.25       1.778      5.08       25         OUTLET    
B0125RT          0.016      0.25       1.778      5.08       25         OUTLET    
B0126RT          0.016      0.25       1.778      5.08       25         OUTLET    
B0130RT          0.016      0.25       1.778      5.08       25         OUTLET    
B0135RT          0.016      0.25       1.778      5.08       25         OUTLET    
B0140RT          0.016      0.25       1.778      5.08       25         OUTLET    
B0145RT          0.016      0.25       1.778      5.08       25         OUTLET    
B0146RT          0.016      0.25       1.778      5.08       25         OUTLET    
B0150RT          0.016      0.25       1.778      5.08       25         OUTLET    
B0155RT          0.016      0.25       1.778      5.08       25         OUTLET    
B0160RT          0.016      0.25       1.778      5.08       25         OUTLET    
B0161RT          0.016      0.25       1.778      5.08       25         OUTLET    
B0165RT          0.016      0.25       1.778      5.08       25         OUTLET    
B0170RT          0.016      0.25       1.778      5.08       25         OUTLET    
B0175RT          0.016      0.25       1.778      5.08       25         OUTLET    
B0180RT          0.016      0.25       1.778      5.08       25         OUTLET    
B0181RT          0.016      0.25       1.778      5.08       25         OUTLET    
B0182RT          0.016      0.25       1.778      5.08       25         OUTLET    
B0185RT          0.016      0.25       1.778      5.08       25         OUTLET    
B0186RT          0.016      0.25       1.778      5.08       25         OUTLET    
B0190RT          0.016      0.25       1.778      5.08       25         OUTLET    
B0195RT          0.016      0.25       1.778      5.08       25         OUTLET    
B0200RT          0.016      0.25       1.778      5.08       25         OUTLET    
B0205RT          0.016      0.25       1.778      5.08       25         OUTLET    
B0210RT          0.016      0.25       1.778      5.08       25         OUTLET    
B0215RT          0.016      0.25       1.778      5.08       25         OUTLET    
B0220RT          0.016      0.25       1.778      5.08       25         OUTLET    
B0225RT          0.016      0.25       1.778      5.08       25         OUTLET    
B0226RT          0.016      0.25       1.778      5.08       25         OUTLET    
B0227RT          0.016      0.25       1.778      5.08       25         OUTLET    
B0230RT          0.016      0.25       1.778      5.08       25         OUTLET    
B0235RT          0.016      0.25       1.778      5.08       25         OUTLET    
B0245RT          0.016      0.25       1.778      5.08       25         OUTLET    
B0255RT          0.016      0.25       1.778      5.08       25         OUTLET    
B0260RT          0.016      0.25       1.778      5.08       25         OUTLET    
B0265RT          0.016      0.25       1.778      5.08       25         OUTLET    
B0280RT          0.016      0.25       1.778      5.08       25         OUTLET    
B0290RT          0.016      0.25       1.778      5.08       25         OUTLET    
B0295RT          0.016      0.25       1.778      5.08       25         OUTLET    
B0300RT          0.016      0.25       1.778      5.08       25         OUTLET    
B0305RT          0.016      0.25       1.778      5.08       25         OUTLET    
B0310RT          0.016      0.25       1.778      5.08       25         OUTLET    
B0315RT          0.016      0.25       1.778      5.08       25         OUTLET    
B0320RT          0.016      0.25       1.778      5.08       25         OUTLET    
B0325RT          0.016      0.25       1.778      5.08       25         OUTLET    
B0330RT          0.016      0.25       1.778      5.08       25         OUTLET    
B0335RT          0.016      0.25       1.778      5.08       25         OUTLET    
B0340RT          0.016      0.25       1.778      5.08       25         OUTLET    
B0345RT          0.016      0.25       1.778      5.08       25         OUTLET    
B0350RT          0.016      0.25       1.778      5.08       25         OUTLET    
B0355RT          0.016      0.25       1.778      5.08       25         OUTLET    
B0360RT          0.016      0.25       1.778      5.08       25         OUTLET    
B0365RT          0.016      0.25       1.778      5.08       25         OUTLET    
B0370RT          0.016      0.25       1.778      5.08       25         OUTLET    
B0375RT          0.016      0.25       1.778      5.08       25         OUTLET    
B0380RT          0.016      0.25       1.778      5.08       25         OUTLET    
B0390RT          0.016      0.25       1.778      5.08       25         OUTLET    
B0405RT          0.016      0.25       1.778      5.08       25         OUTLET    
B0415RT          0.016      0.25       1.778      5.08       25         OUTLET    
B0440RT          0.016      0.25       1.778      5.08       25         OUTLET    
B0460R           0.016      0.25       1.778      5.08       25         OUTLET    
B0465R           0.016      0.25       1.778      5.08       25         OUTLET    
B0470R           0.016      0.25       1.778      5.08       25         OUTLET    
B0475R           0.016      0.25       1.778      5.08       25         OUTLET    
B0480R           0.016      0.25       1.778      5.08       25         OUTLET    
B0490R           0.016      0.25       1.778      5.08       25         OUTLET    
B0520RT          0.016      0.25       1.778      5.08       25         OUTLET    
C0010RT          0.016      0.25       1.778      5.08       25         OUTLET    
C0020RT          0.016      0.25       1.778      5.08       25         OUTLET    
C0040RT          0.016      0.25       1.778      5.08       25         OUTLET    
C0050RT          0.016      0.25       1.778      5.08       25         OUTLET    
C0055RT          0.016      0.25       1.778      5.08       25         OUTLET    
C0060RT          0.016      0.25       1.778      5.08       25         OUTLET    
C0065RT          0.016      0.25       1.778      5.08       25         OUTLET    
C0066RT          0.016      0.25       1.778      5.08       25         OUTLET    
C0070RT          0.016      0.25       1.778      5.08       25         OUTLET    
C0075RT          0.016      0.25       1.778      5.08       25         OUTLET    
C0080RT          0.016      0.25       1.778      5.08       25         OUTLET    
C0081RT          0.016      0.25       1.778      5.08       25         OUTLET    
C0085RT          0.016      0.25       1.778      5.08       25         OUTLET    
C0120RT          0.016      0.25       1.778      5.08       25         OUTLET    
C0125RT          0.016      0.25       1.778      5.08       25         OUTLET    
C0130RT          0.016      0.25       1.778      5.08       25         OUTLET    
C0135RT          0.016      0.25       1.778      5.08       25         OUTLET    
C0140RT          0.016      0.25       1.778      5.08       25         OUTLET    
C0145RT          0.016      0.25       1.778      5.08       25         OUTLET    
C0150RT          0.016      0.25       1.778      5.08       25         OUTLET    
C0155RT          0.016      0.25       1.778      5.08       25         OUTLET    
C0160RT          0.016      0.25       1.778      5.08       25         OUTLET    
C0165RT          0.016      0.25       1.778      5.08       25         OUTLET    
C0170RT          0.016      0.25       1.778      5.08       25         OUTLET    
C0175RT          0.016      0.25       1.778      5.08       25         OUTLET    
C0180RT          0.016      0.25       1.778      5.08       25         OUTLET    
C0185RT          0.016      0.25       1.778      5.08       25         OUTLET    
C0190RT          0.016      0.25       1.778      5.08       25         OUTLET    
C0200RT          0.016      0.25       1.778      5.08       25         OUTLET    
C0205RT          0.016      0.25       1.778      5.08       25         OUTLET    
C0210RT          0.016      0.25       1.778      5.08       25         OUTLET    
C0215RT          0.016      0.25       1.778      5.08       25         OUTLET    
C0220RT          0.016      0.25       1.778      5.08       25         OUTLET    
C0225RT          0.016      0.25       1.778      5.08       25         OUTLET    
C0230RT          0.016      0.25       1.778      5.08       25         OUTLET    
C0235RT          0.016      0.25       1.778      5.08       25         OUTLET    
C0236RT          0.016      0.25       1.778      5.08       25         OUTLET    
C0237RT          0.016      0.25       1.778      5.08       25         OUTLET    
C0240RT          0.016      0.25       1.778      5.08       25         OUTLET    
C0245RT          0.016      0.25       1.778      5.08       25         OUTLET    
C0250RT          0.016      0.25       1.778      5.08       25         OUTLET    
C0255RT          0.016      0.25       1.778      5.08       25         OUTLET    
C0260RT          0.016      0.25       1.778      5.08       25         OUTLET    
C0265RT          0.016      0.25       1.778      5.08       25         OUTLET    
C0270RT          0.016      0.25       1.778      5.08       25         OUTLET    
C0275RT          0.016      0.25       1.778      5.08       25         OUTLET    
C0280RT          0.016      0.25       1.778      5.08       25         OUTLET    
C0281RT          0.016      0.25       1.778      5.08       25         OUTLET    
C0285RT          0.016      0.25       1.778      5.08       25         OUTLET    
C0290RT          0.016      0.25       1.778      5.08       25         OUTLET    
C0295RT          0.016      0.25       1.778      5.08       25         OUTLET    
C0320RT          0.016      0.25       1.778      5.08       25         OUTLET    
C0325RT          0.016      0.25       1.778      5.08       25         OUTLET    
C0385R           0.016      0.25       1.778      5.08       25         OUTLET    
C0390R           0.016      0.25       1.778      5.08       25         OUTLET    
C0400R           0.016      0.25       1.778      5.08       25         OUTLET    
C0425R           0.016      0.25       1.778      5.08       25         OUTLET    
C0450R           0.016      0.25       1.778      5.08       25         OUTLET    
C0455R           0.016      0.25       1.778      5.08       25         OUTLET    
C0505R           0.016      0.25       1.778      5.08       25         OUTLET    
C0550RT          0.016      0.25       1.778      5.08       25         OUTLET    
D0040RT          0.016      0.25       1.778      5.08       25         OUTLET    
D0045RT          0.016      0.25       1.778      5.08       25         OUTLET    
D0050RT          0.016      0.25       1.778      5.08       25         OUTLET    
D0055RT          0.016      0.25       1.778      5.08       25         OUTLET    
D0060RT          0.016      0.25       1.778      5.08       25         OUTLET    
D0065RT          0.016      0.25       1.778      5.08       25         OUTLET    
D0105RT          0.016      0.25       1.778      5.08       25         OUTLET    
D0110RT          0.016      0.25       1.778      5.08       25         OUTLET    
D0115RT          0.016      0.25       1.778      5.08       25         OUTLET    
D0120RT          0.016      0.25       1.778      5.08       25         OUTLET    
D0125RT          0.016      0.25       1.778      5.08       25         OUTLET    
D0140RT          0.016      0.25       1.778      5.08       25         OUTLET    
D0145RT          0.016      0.25       1.778      5.08       25         OUTLET    
D0150RT          0.016      0.25       1.778      5.08       25         OUTLET    
D0405RT          0.016      0.25       1.778      5.08       25         OUTLET    
E0010RT          0.016      0.25       1.778      5.08       25         OUTLET    
E0015RT          0.016      0.25       1.778      5.08       25         OUTLET    
E0020RT          0.016      0.25       1.778      5.08       25         OUTLET    
E0030RT          0.016      0.25       1.778      5.08       25         OUTLET    
E0035RT          0.016      0.25       1.778      5.08       25         OUTLET    
E0040RT          0.016      0.25       1.778      5.08       25         OUTLET    
E0045RT          0.016      0.25       1.778      5.08       25         OUTLET    
E0050RT          0.016      0.25       1.778      5.08       25         OUTLET    
E0055RT          0.016      0.25       1.778      5.08       25         OUTLET    
E0060RT          0.016      0.25       1.778      5.08       25         OUTLET    
E0070RT          0.016      0.25       1.778      5.08       25         OUTLET    
E0085RT          0.016      0.25       1.778      5.08       25         OUTLET    
E0090RT          0.016      0.25       1.778      5.08       25         OUTLET    
E0095RT          0.016      0.25       1.778      5.08       25         OUTLET    
E0135RT          0.016      0.25       1.778      5.08       25         OUTLET    
E0145RT          0.016      0.25       1.778      5.08       25         OUTLET    
E0150RT          0.016      0.25       1.778      5.08       25         OUTLET    
E0155RT          0.016      0.25       1.778      5.08       25         OUTLET    
E0160RT          0.016      0.25       1.778      5.08       25         OUTLET    
E0165RT          0.016      0.25       1.778      5.08       25         OUTLET    
E0170RT          0.016      0.25       1.778      5.08       25         OUTLET    
E0175RT          0.016      0.25       1.778      5.08       25         OUTLET    
E0180RT          0.016      0.25       1.778      5.08       25         OUTLET    
E0190RT          0.016      0.25       1.778      5.08       25         OUTLET    
F0005RT          0.016      0.25       1.778      5.08       25         OUTLET    
F0010RT          0.016      0.25       1.778      5.08       25         OUTLET    
F0015RT          0.016      0.25       1.778      5.08       25         OUTLET    
F0020RT          0.016      0.25       1.778      5.08       25         OUTLET    
F0025RT          0.016      0.25       1.778      5.08       25         OUTLET    
F0030RT          0.016      0.25       1.778      5.08       25         OUTLET    
F0035RT          0.016      0.25       1.778      5.08       25         OUTLET    
F0040RT          0.016      0.25       1.778      5.08       25         OUTLET    
F0045RT          0.016      0.25       1.778      5.08       25         OUTLET    
F0050RT          0.016      0.25       1.778      5.08       25         OUTLET    
F0055RT          0.016      0.25       1.778      5.08       25         OUTLET    
F0060RT          0.016      0.25       1.778      5.08       25         OUTLET    
F0065RT          0.016      0.25       1.778      5.08       25         OUTLET    
F0070RT          0.016      0.25       1.778      5.08       25         OUTLET    
F0075RT          0.016      0.25       1.778      5.08       25         OUTLET    
F0080RT          0.016      0.25       1.778      5.08       25         OUTLET    
F0085RT          0.016      0.25       1.778      5.08       25         OUTLET    
F0090RT          0.016      0.25       1.778      5.08       25         OUTLET    
F0095RT          0.016      0.25       1.778      5.08       25         OUTLET    
F0105RT          0.016      0.25       1.778      5.08       25         OUTLET    
F0110RT          0.016      0.25       1.778      5.08       25         OUTLET    
F0120RT          0.016      0.25       1.778      5.08       25         OUTLET    
F0125RT          0.016      0.25       1.778      5.08       25         OUTLET    
Kempttalstrasse  0.016      0.25       1.778      5.08       25         OUTLET    
Sub_B10          0.016      0.25       1.778      5.08       25         OUTLET    
Sub_B101         0.016      0.25       1.778      5.08       25         OUTLET    
Sub_B102         0.016      0.25       1.778      5.08       25         OUTLET    
Sub_B103         0.016      0.25       1.778      5.08       25         OUTLET    
Sub_B104         0.016      0.25       1.778      5.08       25         OUTLET    
Sub_B106         0.016      0.25       1.778      5.08       25         OUTLET    
Sub_B107         0.016      0.25       1.778      5.08       25         OUTLET    
Sub_B11          0.016      0.25       1.778      5.08       25         OUTLET    
Sub_B111         0.016      0.25       1.778      5.08       25         OUTLET    
Sub_B12          0.016      0.25       1.778      5.08       25         OUTLET    
Sub_B13          0.016      0.25       1.778      5.08       25         OUTLET    
Sub_B131         0.016      0.25       1.778      5.08       25         OUTLET    
Sub_B132         0.016      0.25       1.778      5.08       25         OUTLET    
Sub_B133R        0.016      0.25       1.778      5.08       25         OUTLET    
Sub_B134R        0.016      0.25       1.778      5.08       25         OUTLET    
Sub_B135         0.016      0.25       1.778      5.08       25         OUTLET    
Sub_B135R        0.016      0.25       1.778      5.08       25         OUTLET    
Sub_B136         0.016      0.25       1.778      5.08       25         OUTLET    
Sub_B136R        0.016      0.25       1.778      5.08       25         OUTLET    
Sub_B138         0.016      0.25       1.778      5.08       25         OUTLET    
Sub_B138R        0.016      0.25       1.778      5.08       25         OUTLET    
Sub_B139         0.016      0.25       1.778      5.08       25         OUTLET    
Sub_B139R        0.016      0.25       1.778      5.08       25         OUTLET    
Sub_B140         0.016      0.25       1.778      5.08       25         OUTLET    
Sub_B141         0.016      0.25       1.778      5.08       25         OUTLET    
Sub_B142         0.016      0.25       1.778      5.08       25         OUTLET    
Sub_B143         0.016      0.25       1.778      5.08       25         OUTLET    
Sub_B151         0.016      0.25       1.778      5.08       25         OUTLET    
Sub_B152         0.016      0.25       1.778      5.08       25         OUTLET    
Sub_B153         0.016      0.25       1.778      5.08       25         OUTLET    
Sub_B161         0.016      0.25       1.778      5.08       25         OUTLET    
Sub_B171         0.016      0.25       1.778      5.08       25         OUTLET    
Sub_B172         0.016      0.25       1.778      5.08       25         OUTLET    
Sub_B173         0.016      0.25       1.778      5.08       25         OUTLET    
Sub_B181         0.016      0.25       1.778      5.08       25         OUTLET    
Sub_B191         0.016      0.25       1.778      5.08       25         OUTLET    
Sub_B201         0.016      0.25       1.778      5.08       25         OUTLET    
Sub_B202         0.016      0.25       1.778      5.08       25         OUTLET    
Sub_B203         0.016      0.25       1.778      5.08       25         OUTLET    
Sub_B204         0.016      0.25       1.778      5.08       25         OUTLET    
Sub_B205         0.016      0.25       1.778      5.08       25         OUTLET    
Sub_B21          0.016      0.25       1.778      5.08       25         OUTLET    
Sub_B31          0.016      0.25       1.778      5.08       25         OUTLET    
Sub_B4           0.016      0.25       1.778      5.08       25         OUTLET    
Sub_B41          0.016      0.25       1.778      5.08       25         OUTLET    
Sub_B42          0.016      0.25       1.778      5.08       25         OUTLET    
Sub_B43          0.016      0.25       1.778      5.08       25         OUTLET    
Sub_B5           0.016      0.25       1.778      5.08       25         OUTLET    
Sub_B51          0.016      0.25       1.778      5.08       25         OUTLET    
Sub_B52          0.016      0.25       1.778      5.08       25         OUTLET    
Sub_B54          0.016      0.25       1.778      5.08       25         OUTLET    
Sub_B55          0.016      0.25       1.778      5.08       25         OUTLET    
Sub_B56          0.016      0.25       1.778      5.08       25         OUTLET    
Sub_B57          0.016      0.25       1.778      5.08       25         OUTLET    
Sub_B59          0.016      0.25       1.778      5.08       25         OUTLET    
Sub_B6           0.016      0.25       1.778      5.08       25         OUTLET    
Sub_B60          0.016      0.25       1.778      5.08       25         OUTLET    
Sub_B61          0.016      0.25       1.778      5.08       25         OUTLET    
Sub_B62          0.016      0.25       1.778      5.08       25         OUTLET    
Sub_B7           0.016      0.25       1.778      5.08       25         OUTLET    
Sub_B71          0.016      0.25       1.778      5.08       25         OUTLET    
Sub_B72          0.016      0.25       1.778      5.08       25         OUTLET    
Sub_B73          0.016      0.25       1.778      5.08       25         OUTLET    
Sub_B74          0.016      0.25       1.778      5.08       25         OUTLET    
Sub_B8           0.016      0.25       1.778      5.08       25         OUTLET    
Sub_B81          0.016      0.25       1.778      5.08       25         OUTLET    
Sub_B82          0.016      0.25       1.778      5.08       25         OUTLET    
Sub_B83          0.016      0.25       1.778      5.08       25         OUTLET    
Sub_B84          0.016      0.25       1.778      5.08       25         OUTLET    
Sub_B85          0.016      0.25       1.778      5.08       25         OUTLET    
Sub_B9           0.016      0.25       1.778      5.08       25         OUTLET    
Sub_B91          0.016      0.25       1.778      5.08       25         OUTLET    
Sub_B93          0.016      0.25       1.778      5.08       25         OUTLET    
Sub_B94          0.016      0.25       1.778      5.08       25         OUTLET    
Sub_B95          0.016      0.25       1.778      5.08       25         OUTLET    
Sub_C10          0.016      0.25       1.778      5.08       25         OUTLET    
Sub_C11          0.016      0.25       1.778      5.08       25         OUTLET    
Sub_C2           0.016      0.25       1.778      5.08       25         OUTLET    
Sub_C25R         0.016      0.25       1.778      5.08       25         OUTLET    
Sub_C3           0.016      0.25       1.778      5.08       25         OUTLET    
Sub_C31          0.016      0.25       1.778      5.08       25         OUTLET    
Sub_C32          0.016      0.25       1.778      5.08       25         OUTLET    
Sub_C33          0.016      0.25       1.778      5.08       25         OUTLET    
Sub_C34          0.016      0.25       1.778      5.08       25         OUTLET    
Sub_C35          0.016      0.25       1.778      5.08       25         OUTLET    
Sub_C36          0.016      0.25       1.778      5.08       25         OUTLET    
Sub_C37          0.016      0.25       1.778      5.08       25         OUTLET    
Sub_C37R         0.016      0.25       1.778      5.08       25         OUTLET    
Sub_C38          0.016      0.25       1.778      5.08       25         OUTLET    
Sub_C38R         0.016      0.25       1.778      5.08       25         OUTLET    
Sub_C39          0.016      0.25       1.778      5.08       25         OUTLET    
Sub_C39R         0.016      0.25       1.778      5.08       25         OUTLET    
Sub_C4           0.016      0.25       1.778      5.08       25         OUTLET    
Sub_C40          0.016      0.25       1.778      5.08       25         OUTLET    
Sub_C40R         0.016      0.25       1.778      5.08       25         OUTLET    
Sub_C41          0.016      0.25       1.778      5.08       25         OUTLET    
Sub_C43          0.016      0.25       1.778      5.08       25         OUTLET    
Sub_C5           0.016      0.25       1.778      5.08       25         OUTLET    
Sub_C51          0.016      0.25       1.778      5.08       25         OUTLET    
Sub_C51R         0.016      0.25       1.778      5.08       25         OUTLET    
Sub_C55R         0.016      0.25       1.778      5.08       25         OUTLET    
Sub_C6           0.016      0.25       1.778      5.08       25         OUTLET    
Sub_C61          0.016      0.25       1.778      5.08       25         OUTLET    
Sub_C7           0.016      0.25       1.778      5.08       25         OUTLET    
Sub_C8           0.016      0.25       1.778      5.08       25         OUTLET    
Sub_C9           0.016      0.25       1.778      5.08       25         OUTLET    
Sub_D10          0.016      0.25       1.778      5.08       25         OUTLET    
Sub_D11          0.016      0.25       1.778      5.08       25         OUTLET    
Sub_D111R        0.016      0.25       1.778      5.08       25         OUTLET    
Sub_D112R        0.016      0.25       1.778      5.08       25         OUTLET    
Sub_D114R        0.016      0.25       1.778      5.08       25         OUTLET    
Sub_D121R        0.016      0.25       1.778      5.08       25         OUTLET    
Sub_D131R        0.016      0.25       1.778      5.08       25         OUTLET    
Sub_D132R        0.016      0.25       1.778      5.08       25         OUTLET    
Sub_D134R        0.016      0.25       1.778      5.08       25         OUTLET    
Sub_D136R        0.016      0.25       1.778      5.08       25         OUTLET    
Sub_D137R        0.016      0.25       1.778      5.08       25         OUTLET    
Sub_D151R        0.016      0.25       1.778      5.08       25         OUTLET    
Sub_D2           0.016      0.25       1.778      5.08       25         OUTLET    
Sub_D21          0.016      0.25       1.778      5.08       25         OUTLET    
Sub_D22          0.016      0.25       1.778      5.08       25         OUTLET    
Sub_D23          0.016      0.25       1.778      5.08       25         OUTLET    
Sub_D24          0.016      0.25       1.778      5.08       25         OUTLET    
Sub_D3           0.016      0.25       1.778      5.08       25         OUTLET    
Sub_D30R         0.016      0.25       1.778      5.08       25         OUTLET    
Sub_D31R         0.016      0.25       1.778      5.08       25         OUTLET    
Sub_D32R         0.016      0.25       1.778      5.08       25         OUTLET    
Sub_D33          0.016      0.25       1.778      5.08       25         OUTLET    
Sub_D36          0.016      0.25       1.778      5.08       25         OUTLET    
Sub_D37          0.016      0.25       1.778      5.08       25         OUTLET    
Sub_D39          0.016      0.25       1.778      5.08       25         OUTLET    
Sub_D4           0.016      0.25       1.778      5.08       25         OUTLET    
Sub_D40          0.016      0.25       1.778      5.08       25         OUTLET    
Sub_D41          0.016      0.25       1.778      5.08       25         OUTLET    
Sub_D42          0.016      0.25       1.778      5.08       25         OUTLET    
Sub_D5           0.016      0.25       1.778      5.08       25         OUTLET    
Sub_D51          0.016      0.25       1.778      5.08       25         OUTLET    
Sub_D52          0.016      0.25       1.778      5.08       25         OUTLET    
Sub_D53          0.016      0.25       1.778      5.08       25         OUTLET    
Sub_D54          0.016      0.25       1.778      5.08       25         OUTLET    
Sub_D6           0.016      0.25       1.778      5.08       25         OUTLET    
Sub_D61          0.016      0.25       1.778      5.08       25         OUTLET    
Sub_D63          0.016      0.25       1.778      5.08       25         OUTLET    
Sub_D64          0.016      0.25       1.778      5.08       25         OUTLET    
Sub_D65          0.016      0.25       1.778      5.08       25         OUTLET    
Sub_D66          0.016      0.25       1.778      5.08       25         OUTLET    
Sub_D7           0.016      0.25       1.778      5.08       25         OUTLET    
Sub_D71          0.016      0.25       1.778      5.08       25         OUTLET    
Sub_D8           0.016      0.25       1.778      5.08       25         OUTLET    
Sub_D9           0.016      0.25       1.778      5.08       25         OUTLET    
Sub_E44          0.016      0.25       1.778      5.08       25         OUTLET    
Sub_E45          0.016      0.25       1.778      5.08       25         OUTLET    
Sub_E46          0.016      0.25       1.778      5.08       25         OUTLET    
Sub_E47          0.016      0.25       1.778      5.08       25         OUTLET    
Sub_E48          0.016      0.25       1.778      5.08       25         OUTLET    
Sub_E49          0.016      0.25       1.778      5.08       25         OUTLET    
Sub_E51          0.016      0.25       1.778      5.08       25         OUTLET    
Sub_E68          0.016      0.25       1.778      5.08       25         OUTLET    
Sub_E69          0.016      0.25       1.778      5.08       25         OUTLET    
Sub_E70          0.016      0.25       1.778      5.08       25         OUTLET    
Sub_E71          0.016      0.25       1.778      5.08       25         OUTLET    
Sub_E73          0.016      0.25       1.778      5.08       25         OUTLET    
Sub_E74          0.016      0.25       1.778      5.08       25         OUTLET    
Sub_E75          0.016      0.25       1.778      5.08       25         OUTLET    
Sub_E76          0.016      0.25       1.778      5.08       25         OUTLET    
Sub_E81          0.016      0.25       1.778      5.08       25         OUTLET    
Sub_E82          0.016      0.25       1.778      5.08       25         OUTLET    
Sub_E83          0.016      0.25       1.778      5.08       25         OUTLET    
Sub_E84          0.016      0.25       1.778      5.08       25         OUTLET    
Sub_E85          0.016      0.25       1.778      5.08       25         OUTLET    
Sub_E86          0.016      0.25       1.778      5.08       25         OUTLET    
Sub_E91          0.016      0.25       1.778      5.08       25         OUTLET    
Sub_E92          0.016      0.25       1.778      5.08       25         OUTLET    
Sub_E93          0.016      0.25       1.778      5.08       25         OUTLET    
Sub_E94          0.016      0.25       1.778      5.08       25         OUTLET    
Sub_F10          0.016      0.25       1.778      5.08       25         OUTLET    
Sub_F141         0.016      0.25       1.778      5.08       25         OUTLET    
Sub_F142         0.016      0.25       1.778      5.08       25         OUTLET    
Sub_F143         0.016      0.25       1.778      5.08       25         OUTLET    
Sub_F144         0.016      0.25       1.778      5.08       25         OUTLET    
Sub_F145         0.016      0.25       1.778      5.08       25         OUTLET    
Sub_F146         0.016      0.25       1.778      5.08       25         OUTLET    
Sub_F152         0.016      0.25       1.778      5.08       25         OUTLET    
Sub_F153         0.016      0.25       1.778      5.08       25         OUTLET    
Sub_F154         0.016      0.25       1.778      5.08       25         OUTLET    
Sub_F161         0.016      0.25       1.778      5.08       25         OUTLET    
Sub_F162         0.016      0.25       1.778      5.08       25         OUTLET    
Sub_F181         0.016      0.25       1.778      5.08       25         OUTLET    
Sub_F182         0.016      0.25       1.778      5.08       25         OUTLET    
Sub_F183         0.016      0.25       1.778      5.08       25         OUTLET    
Sub_F184         0.016      0.25       1.778      5.08       25         OUTLET    
Sub_F185         0.016      0.25       1.778      5.08       25         OUTLET    
Sub_F191         0.016      0.25       1.778      5.08       25         OUTLET    
Sub_F192         0.016      0.25       1.778      5.08       25         OUTLET    
Sub_F201         0.016      0.25       1.778      5.08       25         OUTLET    
Sub_F202         0.016      0.25       1.778      5.08       25         OUTLET    
Sub_F209R        0.016      0.25       1.778      5.08       25         OUTLET    
Sub_F21          0.016      0.25       1.778      5.08       25         OUTLET    
Sub_F210R        0.016      0.25       1.778      5.08       25         OUTLET    
Sub_F211R        0.016      0.25       1.778      5.08       25         OUTLET    
Sub_F212R        0.016      0.25       1.778      5.08       25         OUTLET    
Sub_F22          0.016      0.25       1.778      5.08       25         OUTLET    
Sub_F221R        0.016      0.25       1.778      5.08       25         OUTLET    
Sub_F222R        0.016      0.25       1.778      5.08       25         OUTLET    
Sub_F23          0.016      0.25       1.778      5.08       25         OUTLET    
Sub_F231R        0.016      0.25       1.778      5.08       25         OUTLET    
Sub_F24          0.016      0.25       1.778      5.08       25         OUTLET    
Sub_F241         0.016      0.25       1.778      5.08       25         OUTLET    
Sub_F242         0.016      0.25       1.778      5.08       25         OUTLET    
Sub_F243         0.016      0.25       1.778      5.08       25         OUTLET    
Sub_F244         0.016      0.25       1.778      5.08       25         OUTLET    
Sub_F248         0.016      0.25       1.778      5.08       25         OUTLET    
Sub_F249         0.016      0.25       1.778      5.08       25         OUTLET    
Sub_F25          0.016      0.25       1.778      5.08       25         OUTLET    
Sub_F250         0.016      0.25       1.778      5.08       25         OUTLET    
Sub_F251         0.016      0.25       1.778      5.08       25         OUTLET    
Sub_F253         0.016      0.25       1.778      5.08       25         OUTLET    
Sub_F254         0.016      0.25       1.778      5.08       25         OUTLET    
Sub_F255         0.016      0.25       1.778      5.08       25         OUTLET    
Sub_F26          0.016      0.25       1.778      5.08       25         OUTLET    
Sub_F27          0.016      0.25       1.778      5.08       25         OUTLET    
Sub_F31          0.016      0.25       1.778      5.08       25         OUTLET    
Sub_F32          0.016      0.25       1.778      5.08       25         OUTLET    
Sub_F41          0.016      0.25       1.778      5.08       25         OUTLET    
Sub_F42          0.016      0.25       1.778      5.08       25         OUTLET    
Sub_F6           0.016      0.25       1.778      5.08       25         OUTLET    
Sub_F61          0.016      0.25       1.778      5.08       25         OUTLET    
Sub_F62          0.016      0.25       1.778      5.08       25         OUTLET    
Sub_F63          0.01       0.1        0.05       0.05       25         OUTLET    
Sub_F63.1        0.01       0.1        0.05       0.05       25         OUTLET    
Sub_F64          0.01       0.1        0.05       0.05       25         OUTLET    
Sub_F64.1        0.01       0.1        0.05       0.05       25         OUTLET    
Sub_F65          0.016      0.25       1.778      5.08       25         OUTLET    
Sub_F7           0.016      0.25       1.778      5.08       25         OUTLET    
Sub_F8           0.016      0.25       1.778      5.08       25         OUTLET    
Sub_F81          0.01       0.1        0.05       0.05       25         OUTLET    
Sub_F81.1        0.01       0.1        0.05       0.05       25         OUTLET    
Sub_F82          0.016      0.25       1.778      5.08       25         OUTLET    
Sub_F83          0.016      0.25       1.778      5.08       25         OUTLET    
Sub_F84          0.016      0.25       1.778      5.08       25         OUTLET    
Sub_F85          0.016      0.25       1.778      5.08       25         OUTLET    
Sub_F86          0.01       0.1        0.05       0.05       25         OUTLET    
Sub_F86.1        0.01       0.1        0.05       0.05       25         OUTLET    
Sub_F87          0.016      0.25       1.778      5.08       25         OUTLET    
Sub_F88          0.016      0.25       1.778      5.08       25         OUTLET    
Sub_F89          0.016      0.25       1.778      5.08       25         OUTLET    
Sub_F90          0.016      0.25       1.778      5.08       25         OUTLET    
Sub_F91          0.016      0.25       1.778      5.08       25         OUTLET    
Sub_F92          0.016      0.25       1.778      5.08       25         OUTLET    
Sub_F93          0.016      0.25       1.778      5.08       25         OUTLET    
Sub_F94          0.016      0.25       1.778      5.08       25         OUTLET    
A0050RT          0.016      0.25       1.778      5.08       25         OUTLET    
A0055T           0.016      0.25       1.778      5.08       25         OUTLET    

[INFILTRATION]
;;Subcatchment   MaxRate    MinRate    Decay      DryTime    MaxInfil  
;;-------------- ---------- ---------- ---------- ---------- ----------
A0005RT          75         1.5        5          7          0         
A0010RT          75         1.5        5          7          0         
A0015RT          75         1.5        5          7          0         
A0020RT          75         1.5        5          7          0         
A0025RT          75         1.5        5          7          0         
A0030RT          75         1.5        5          7          0         
A0035RT          75         1.5        5          7          0         
A0040RT          75         1.5        5          7          0         
A0045RT          75         1.5        5          7          0         
A0065RT          75         1.5        5          7          0         
A0070RT          75         1.5        5          7          0         
A0075RT          75         1.5        5          7          0         
A0080RT          75         1.5        5          7          0         
A0085RT          75         1.5        5          7          0         
A0090RT          75         1.5        5          7          0         
A0095RT          75         1.5        5          7          0         
A0100RT          75         1.5        5          7          0         
A0105RT          75         1.5        5          7          0         
A0110RT          75         1.5        5          7          0         
A0115RT          75         1.5        5          7          0         
A0120RT          75         1.5        5          7          0         
A0125RT          75         1.5        5          7          0         
A0130RT          75         1.5        5          7          0         
A0135RT          75         1.5        5          7          0         
A0140RT          75         1.5        5          7          0         
A0145RT          75         1.5        5          7          0         
A0150RT          75         1.5        5          7          0         
A0155RT          75         1.5        5          7          0         
A0160RT          75         1.5        5          7          0         
A0165RT          75         1.5        5          7          0         
B0005RT          75         1.5        5          7          0         
B0010RT          75         1.5        5          7          0         
B0015RT          75         1.5        5          7          0         
B0016RT          75         1.5        5          7          0         
B0020RT          75         1.5        5          7          0         
B0025RT          75         1.5        5          7          0         
B0030RT          75         1.5        5          7          0         
B0035RT          75         1.5        5          7          0         
B0040RT          75         1.5        5          7          0         
B0045RT          75         1.5        5          7          0         
B0050RT          75         1.5        5          7          0         
B0055RT          75         1.5        5          7          0         
B0060RT          75         1.5        5          7          0         
B0065RT          75         1.5        5          7          0         
B0066RT          75         1.5        5          7          0         
B0070RT          75         1.5        5          7          0         
B0075RT          75         1.5        5          7          0         
B0080RT          75         1.5        5          7          0         
B0085RT          75         1.5        5          7          0         
B0090RT          75         1.5        5          7          0         
B0095RT          75         1.5        5          7          0         
B0100RT          75         1.5        5          7          0         
B0105RT          75         1.5        5          7          0         
B0110RT          75         1.5        5          7          0         
B0115RT          75         1.5        5          7          0         
B0120RT          75         1.5        5          7          0         
B0125RT          75         1.5        5          7          0         
B0126RT          75         1.5        5          7          0         
B0130RT          75         1.5        5          7          0         
B0135RT          75         1.5        5          7          0         
B0140RT          75         1.5        5          7          0         
B0145RT          75         1.5        5          7          0         
B0146RT          75         1.5        5          7          0         
B0150RT          75         1.5        5          7          0         
B0155RT          75         1.5        5          7          0         
B0160RT          75         1.5        5          7          0         
B0161RT          75         1.5        5          7          0         
B0165RT          75         1.5        5          7          0         
B0170RT          75         1.5        5          7          0         
B0175RT          75         1.5        5          7          0         
B0180RT          75         1.5        5          7          0         
B0181RT          75         1.5        5          7          0         
B0182RT          75         1.5        5          7          0         
B0185RT          75         1.5        5          7          0         
B0186RT          75         1.5        5          7          0         
B0190RT          75         1.5        5          7          0         
B0195RT          75         1.5        5          7          0         
B0200RT          75         1.5        5          7          0         
B0205RT          75         1.5        5          7          0         
B0210RT          75         1.5        5          7          0         
B0215RT          75         1.5        5          7          0         
B0220RT          75         1.5        5          7          0         
B0225RT          75         1.5        5          7          0         
B0226RT          75         1.5        5          7          0         
B0227RT          75         1.5        5          7          0         
B0230RT          75         1.5        5          7          0         
B0235RT          75         1.5        5          7          0         
B0245RT          75         1.5        5          7          0         
B0255RT          75         1.5        5          7          0         
B0260RT          75         1.5        5          7          0         
B0265RT          75         1.5        5          7          0         
B0280RT          75         1.5        5          7          0         
B0290RT          75         1.5        5          7          0         
B0295RT          75         1.5        5          7          0         
B0300RT          75         1.5        5          7          0         
B0305RT          75         1.5        5          7          0         
B0310RT          75         1.5        5          7          0         
B0315RT          75         1.5        5          7          0         
B0320RT          75         1.5        5          7          0         
B0325RT          75         1.5        5          7          0         
B0330RT          75         1.5        5          7          0         
B0335RT          75         1.5        5          7          0         
B0340RT          75         1.5        5          7          0         
B0345RT          75         1.5        5          7          0         
B0350RT          75         1.5        5          7          0         
B0355RT          75         1.5        5          7          0         
B0360RT          75         1.5        5          7          0         
B0365RT          75         1.5        5          7          0         
B0370RT          75         1.5        5          7          0         
B0375RT          75         1.5        5          7          0         
B0380RT          75         1.5        5          7          0         
B0390RT          75         1.5        5          7          0         
B0405RT          75         1.5        5          7          0         
B0415RT          75         1.5        5          7          0         
B0440RT          75         1.5        5          7          0         
B0460R           75         1.5        5          7          0         
B0465R           75         1.5        5          7          0         
B0470R           75         1.5        5          7          0         
B0475R           75         1.5        5          7          0         
B0480R           75         1.5        5          7          0         
B0490R           75         1.5        5          7          0         
B0520RT          75         1.5        5          7          0         
C0010RT          75         1.5        5          7          0         
C0020RT          75         1.5        5          7          0         
C0040RT          75         1.5        5          7          0         
C0050RT          75         1.5        5          7          0         
C0055RT          75         1.5        5          7          0         
C0060RT          75         1.5        5          7          0         
C0065RT          75         1.5        5          7          0         
C0066RT          75         1.5        5          7          0         
C0070RT          75         1.5        5          7          0         
C0075RT          75         1.5        5          7          0         
C0080RT          75         1.5        5          7          0         
C0081RT          75         1.5        5          7          0         
C0085RT          75         1.5        5          7          0         
C0120RT          75         1.5        5          7          0         
C0125RT          75         1.5        5          7          0         
C0130RT          75         1.5        5          7          0         
C0135RT          75         1.5        5          7          0         
C0140RT          75         1.5        5          7          0         
C0145RT          75         1.5        5          7          0         
C0150RT          75         1.5        5          7          0         
C0155RT          75         1.5        5          7          0         
C0160RT          75         1.5        5          7          0         
C0165RT          75         1.5        5          7          0         
C0170RT          75         1.5        5          7          0         
C0175RT          75         1.5        5          7          0         
C0180RT          75         1.5        5          7          0         
C0185RT          75         1.5        5          7          0         
C0190RT          75         1.5        5          7          0         
C0200RT          75         1.5        5          7          0         
C0205RT          75         1.5        5          7          0         
C0210RT          75         1.5        5          7          0         
C0215RT          75         1.5        5          7          0         
C0220RT          75         1.5        5          7          0         
C0225RT          75         1.5        5          7          0         
C0230RT          75         1.5        5          7          0         
C0235RT          75         1.5        5          7          0         
C0236RT          75         1.5        5          7          0         
C0237RT          75         1.5        5          7          0         
C0240RT          75         1.5        5          7          0         
C0245RT          75         1.5        5          7          0         
C0250RT          75         1.5        5          7          0         
C0255RT          75         1.5        5          7          0         
C0260RT          75         1.5        5          7          0         
C0265RT          75         1.5        5          7          0         
C0270RT          75         1.5        5          7          0         
C0275RT          75         1.5        5          7          0         
C0280RT          75         1.5        5          7          0         
C0281RT          75         1.5        5          7          0         
C0285RT          75         1.5        5          7          0         
C0290RT          75         1.5        5          7          0         
C0295RT          75         1.5        5          7          0         
C0320RT          75         1.5        5          7          0         
C0325RT          75         1.5        5          7          0         
C0385R           75         1.5        5          7          0         
C0390R           75         1.5        5          7          0         
C0400R           75         1.5        5          7          0         
C0425R           75         1.5        5          7          0         
C0450R           75         1.5        5          7          0         
C0455R           75         1.5        5          7          0         
C0505R           75         1.5        5          7          0         
C0550RT          75         1.5        5          7          0         
D0040RT          75         1.5        5          7          0         
D0045RT          75         1.5        5          7          0         
D0050RT          75         1.5        5          7          0         
D0055RT          75         1.5        5          7          0         
D0060RT          75         1.5        5          7          0         
D0065RT          75         1.5        5          7          0         
D0105RT          75         1.5        5          7          0         
D0110RT          75         1.5        5          7          0         
D0115RT          75         1.5        5          7          0         
D0120RT          75         1.5        5          7          0         
D0125RT          75         1.5        5          7          0         
D0140RT          75         1.5        5          7          0         
D0145RT          75         1.5        5          7          0         
D0150RT          75         1.5        5          7          0         
D0405RT          75         1.5        5          7          0         
E0010RT          75         1.5        5          7          0         
E0015RT          75         1.5        5          7          0         
E0020RT          75         1.5        5          7          0         
E0030RT          75         1.5        5          7          0         
E0035RT          75         1.5        5          7          0         
E0040RT          75         1.5        5          7          0         
E0045RT          75         1.5        5          7          0         
E0050RT          75         1.5        5          7          0         
E0055RT          75         1.5        5          7          0         
E0060RT          75         1.5        5          7          0         
E0070RT          75         1.5        5          7          0         
E0085RT          75         1.5        5          7          0         
E0090RT          75         1.5        5          7          0         
E0095RT          75         1.5        5          7          0         
E0135RT          75         1.5        5          7          0         
E0145RT          75         1.5        5          7          0         
E0150RT          75         1.5        5          7          0         
E0155RT          75         1.5        5          7          0         
E0160RT          75         1.5        5          7          0         
E0165RT          75         1.5        5          7          0         
E0170RT          75         1.5        5          7          0         
E0175RT          75         1.5        5          7          0         
E0180RT          75         1.5        5          7          0         
E0190RT          75         1.5        5          7          0         
F0005RT          75         1.5        5          7          0         
F0010RT          75         1.5        5          7          0         
F0015RT          75         1.5        5          7          0         
F0020RT          75         1.5        5          7          0         
F0025RT          75         1.5        5          7          0         
F0030RT          75         1.5        5          7          0         
F0035RT          75         1.5        5          7          0         
F0040RT          75         1.5        5          7          0         
F0045RT          75         1.5        5          7          0         
F0050RT          75         1.5        5          7          0         
F0055RT          75         1.5        5          7          0         
F0060RT          75         1.5        5          7          0         
F0065RT          75         1.5        5          7          0         
F0070RT          75         1.5        5          7          0         
F0075RT          75         1.5        5          7          0         
F0080RT          75         1.5        5          7          0         
F0085RT          75         1.5        5          7          0         
F0090RT          75         1.5        5          7          0         
F0095RT          75         1.5        5          7          0         
F0105RT          75         1.5        5          7          0         
F0110RT          75         1.5        5          7          0         
F0120RT          75         1.5        5          7          0         
F0125RT          75         1.5        5          7          0         
Kempttalstrasse  75         1.5        5          7          0         
Sub_B10          75         1.5        5          7          0         
Sub_B101         75         1.5        5          7          0         
Sub_B102         75         1.5        5          7          0         
Sub_B103         75         1.5        5          7          0         
Sub_B104         75         1.5        5          7          0         
Sub_B106         75         1.5        5          7          0         
Sub_B107         75         1.5        5          7          0         
Sub_B11          75         1.5        5          7          0         
Sub_B111         75         1.5        5          7          0         
Sub_B12          75         1.5        5          7          0         
Sub_B13          75         1.5        5          7          0         
Sub_B131         75         1.5        5          7          0         
Sub_B132         75         1.5        5          7          0         
Sub_B133R        75         1.5        5          7          0         
Sub_B134R        75         1.5        5          7          0         
Sub_B135         75         1.5        5          7          0         
Sub_B135R        75         1.5        5          7          0         
Sub_B136         75         1.5        5          7          0         
Sub_B136R        75         1.5        5          7          0         
Sub_B138         75         1.5        5          7          0         
Sub_B138R        75         1.5        5          7          0         
Sub_B139         75         1.5        5          7          0         
Sub_B139R        75         1.5        5          7          0         
Sub_B140         75         1.5        5          7          0         
Sub_B141         75         1.5        5          7          0         
Sub_B142         75         1.5        5          7          0         
Sub_B143         75         1.5        5          7          0         
Sub_B151         75         1.5        5          7          0         
Sub_B152         75         1.5        5          7          0         
Sub_B153         75         1.5        5          7          0         
Sub_B161         75         1.5        5          7          0         
Sub_B171         75         1.5        5          7          0         
Sub_B172         75         1.5        5          7          0         
Sub_B173         75         1.5        5          7          0         
Sub_B181         75         1.5        5          7          0         
Sub_B191         75         1.5        5          7          0         
Sub_B201         75         1.5        5          7          0         
Sub_B202         75         1.5        5          7          0         
Sub_B203         75         1.5        5          7          0         
Sub_B204         75         1.5        5          7          0         
Sub_B205         75         1.5        5          7          0         
Sub_B21          75         1.5        5          7          0         
Sub_B31          75         1.5        5          7          0         
Sub_B4           75         1.5        5          7          0         
Sub_B41          75         1.5        5          7          0         
Sub_B42          75         1.5        5          7          0         
Sub_B43          75         1.5        5          7          0         
Sub_B5           75         1.5        5          7          0         
Sub_B51          75         1.5        5          7          0         
Sub_B52          75         1.5        5          7          0         
Sub_B54          75         1.5        5          7          0         
Sub_B55          75         1.5        5          7          0         
Sub_B56          75         1.5        5          7          0         
Sub_B57          75         1.5        5          7          0         
Sub_B59          75         1.5        5          7          0         
Sub_B6           75         1.5        5          7          0         
Sub_B60          75         1.5        5          7          0         
Sub_B61          75         1.5        5          7          0         
Sub_B62          75         1.5        5          7          0         
Sub_B7           75         1.5        5          7          0         
Sub_B71          75         1.5        5          7          0         
Sub_B72          75         1.5        5          7          0         
Sub_B73          75         1.5        5          7          0         
Sub_B74          75         1.5        5          7          0         
Sub_B8           75         1.5        5          7          0         
Sub_B81          75         1.5        5          7          0         
Sub_B82          75         1.5        5          7          0         
Sub_B83          75         1.5        5          7          0         
Sub_B84          75         1.5        5          7          0         
Sub_B85          75         1.5        5          7          0         
Sub_B9           75         1.5        5          7          0         
Sub_B91          75         1.5        5          7          0         
Sub_B93          75         1.5        5          7          0         
Sub_B94          75         1.5        5          7          0         
Sub_B95          75         1.5        5          7          0         
Sub_C10          75         1.5        5          7          0         
Sub_C11          75         1.5        5          7          0         
Sub_C2           75         1.5        5          7          0         
Sub_C25R         75         1.5        5          7          0         
Sub_C3           75         1.5        5          7          0         
Sub_C31          75         1.5        5          7          0         
Sub_C32          75         1.5        5          7          0         
Sub_C33          75         1.5        5          7          0         
Sub_C34          75         1.5        5          7          0         
Sub_C35          75         1.5        5          7          0         
Sub_C36          75         1.5        5          7          0         
Sub_C37          75         1.5        5          7          0         
Sub_C37R         75         1.5        5          7          0         
Sub_C38          75         1.5        5          7          0         
Sub_C38R         75         1.5        5          7          0         
Sub_C39          75         1.5        5          7          0         
Sub_C39R         75         1.5        5          7          0         
Sub_C4           75         1.5        5          7          0         
Sub_C40          75         1.5        5          7          0         
Sub_C40R         75         1.5        5          7          0         
Sub_C41          75         1.5        5          7          0         
Sub_C43          75         1.5        5          7          0         
Sub_C5           75         1.5        5          7          0         
Sub_C51          75         1.5        5          7          0         
Sub_C51R         75         1.5        5          7          0         
Sub_C55R         75         1.5        5          7          0         
Sub_C6           75         1.5        5          7          0         
Sub_C61          75         1.5        5          7          0         
Sub_C7           75         1.5        5          7          0         
Sub_C8           75         1.5        5          7          0         
Sub_C9           75         1.5        5          7          0         
Sub_D10          75         1.5        5          7          0         
Sub_D11          75         1.5        5          7          0         
Sub_D111R        75         1.5        5          7          0         
Sub_D112R        75         1.5        5          7          0         
Sub_D114R        75         1.5        5          7          0         
Sub_D121R        75         1.5        5          7          0         
Sub_D131R        75         1.5        5          7          0         
Sub_D132R        75         1.5        5          7          0         
Sub_D134R        75         1.5        5          7          0         
Sub_D136R        75         1.5        5          7          0         
Sub_D137R        75         1.5        5          7          0         
Sub_D151R        75         1.5        5          7          0         
Sub_D2           75         1.5        5          7          0         
Sub_D21          75         1.5        5          7          0         
Sub_D22          75         1.5        5          7          0         
Sub_D23          75         1.5        5          7          0         
Sub_D24          75         1.5        5          7          0         
Sub_D3           75         1.5        5          7          0         
Sub_D30R         75         1.5        5          7          0         
Sub_D31R         75         1.5        5          7          0         
Sub_D32R         75         1.5        5          7          0         
Sub_D33          75         1.5        5          7          0         
Sub_D36          75         1.5        5          7          0         
Sub_D37          75         1.5        5          7          0         
Sub_D39          75         1.5        5          7          0         
Sub_D4           75         1.5        5          7          0         
Sub_D40          75         1.5        5          7          0         
Sub_D41          75         1.5        5          7          0         
Sub_D42          75         1.5        5          7          0         
Sub_D5           75         1.5        5          7          0         
Sub_D51          75         1.5        5          7          0         
Sub_D52          75         1.5        5          7          0         
Sub_D53          75         1.5        5          7          0         
Sub_D54          75         1.5        5          7          0         
Sub_D6           75         1.5        5          7          0         
Sub_D61          75         1.5        5          7          0         
Sub_D63          75         1.5        5          7          0         
Sub_D64          75         1.5        5          7          0         
Sub_D65          75         1.5        5          7          0         
Sub_D66          75         1.5        5          7          0         
Sub_D7           75         1.5        5          7          0         
Sub_D71          75         1.5        5          7          0         
Sub_D8           75         1.5        5          7          0         
Sub_D9           75         1.5        5          7          0         
Sub_E44          75         1.5        5          7          0         
Sub_E45          75         1.5        5          7          0         
Sub_E46          75         1.5        5          7          0         
Sub_E47          75         1.5        5          7          0         
Sub_E48          75         1.5        5          7          0         
Sub_E49          75         1.5        5          7          0         
Sub_E51          75         1.5        5          7          0         
Sub_E68          75         1.5        5          7          0         
Sub_E69          75         1.5        5          7          0         
Sub_E70          75         1.5        5          7          0         
Sub_E71          75         1.5        5          7          0         
Sub_E73          75         1.5        5          7          0         
Sub_E74          75         1.5        5          7          0         
Sub_E75          75         1.5        5          7          0         
Sub_E76          75         1.5        5          7          0         
Sub_E81          75         1.5        5          7          0         
Sub_E82          75         1.5        5          7          0         
Sub_E83          75         1.5        5          7          0         
Sub_E84          75         1.5        5          7          0         
Sub_E85          75         1.5        5          7          0         
Sub_E86          75         1.5        5          7          0         
Sub_E91          75         1.5        5          7          0         
Sub_E92          75         1.5        5          7          0         
Sub_E93          75         1.5        5          7          0         
Sub_E94          75         1.5        5          7          0         
Sub_F10          75         1.5        5          7          0         
Sub_F141         75         1.5        5          7          0         
Sub_F142         75         1.5        5          7          0         
Sub_F143         75         1.5        5          7          0         
Sub_F144         75         1.5        5          7          0         
Sub_F145         75         1.5        5          7          0         
Sub_F146         75         1.5        5          7          0         
Sub_F152         75         1.5        5          7          0         
Sub_F153         75         1.5        5          7          0         
Sub_F154         75         1.5        5          7          0         
Sub_F161         75         1.5        5          7          0         
Sub_F162         75         1.5        5          7          0         
Sub_F181         75         1.5        5          7          0         
Sub_F182         75         1.5        5          7          0         
Sub_F183         75         1.5        5          7          0         
Sub_F184         75         1.5        5          7          0         
Sub_F185         75         1.5        5          7          0         
Sub_F191         75         1.5        5          7          0         
Sub_F192         75         1.5        5          7          0         
Sub_F201         75         1.5        5          7          0         
Sub_F202         75         1.5        5          7          0         
Sub_F209R        75         1.5        5          7          0         
Sub_F21          75         1.5        5          7          0         
Sub_F210R        75         1.5        5          7          0         
Sub_F211R        75         1.5        5          7          0         
Sub_F212R        75         1.5        5          7          0         
Sub_F22          75         1.5        5          7          0         
Sub_F221R        75         1.5        5          7          0         
Sub_F222R        75         1.5        5          7          0         
Sub_F23          75         1.5        5          7          0         
Sub_F231R        75         1.5        5          7          0         
Sub_F24          75         1.5        5          7          0         
Sub_F241         75         1.5        5          7          0         
Sub_F242         75         1.5        5          7          0         
Sub_F243         75         1.5        5          7          0         
Sub_F244         75         1.5        5          7          0         
Sub_F248         75         1.5        5          7          0         
Sub_F249         75         1.5        5          7          0         
Sub_F25          75         1.5        5          7          0         
Sub_F250         75         1.5        5          7          0         
Sub_F251         75         1.5        5          7          0         
Sub_F253         75         1.5        5          7          0         
Sub_F254         75         1.5        5          7          0         
Sub_F255         75         1.5        5          7          0         
Sub_F26          75         1.5        5          7          0         
Sub_F27          75         1.5        5          7          0         
Sub_F31          75         1.5        5          7          0         
Sub_F32          75         1.5        5          7          0         
Sub_F41          75         1.5        5          7          0         
Sub_F42          75         1.5        5          7          0         
Sub_F6           75         1.5        5          7          0         
Sub_F61          75         1.5        5          7          0         
Sub_F62          75         1.5        5          7          0         
Sub_F63          3.0        0.5        4          7          0         
Sub_F63.1        3.0        0.5        4          7          0         
Sub_F64          3.0        0.5        4          7          0         
Sub_F64.1        3.0        0.5        4          7          0         
Sub_F65          75         1.5        5          7          0         
Sub_F7           75         1.5        5          7          0         
Sub_F8           75         1.5        5          7          0         
Sub_F81          3.0        0.5        4          7          0         
Sub_F81.1        3.0        0.5        4          7          0         
Sub_F82          75         1.5        5          7          0         
Sub_F83          75         1.5        5          7          0         
Sub_F84          75         1.5        5          7          0         
Sub_F85          75         1.5        5          7          0         
Sub_F86          3.0        0.5        4          7          0         
Sub_F86.1        3.0        0.5        4          7          0         
Sub_F87          75         1.5        5          7          0         
Sub_F88          75         1.5        5          7          0         
Sub_F89          75         1.5        5          7          0         
Sub_F90          75         1.5        5          7          0         
Sub_F91          75         1.5        5          7          0         
Sub_F92          75         1.5        5          7          0         
Sub_F93          75         1.5        5          7          0         
Sub_F94          75         1.5        5          7          0         
A0050RT          75         1.5        5          7          0         
A0055T           75         1.5        5          7          0         

[JUNCTIONS]
;;Name           Elevation  MaxDepth   InitDepth  SurDepth   Aponded   
;;-------------- ---------- ---------- ---------- ---------- ----------
101              533.74     2.61       0.06       0          0         
102a             533.46     3.08       0.04       0          0         
102b             531.98     4.12       0.05       0          0         
102c             531.84     3.81       0.05       0          0         
102d             533.27     3.11       0.01       0          0         
102e             532.9      2.6        0.01       0          0         
102f             532.52     3.58       0.01       0          0         
102g             532.32     4          0.01       0          0         
102i             531.33     3.4        0.05       0          0         
102k             533.33     2          0.01       0          0         
103a             531.4      3.37       0.01       0          0         
103b             531.2      2.63       0.01       0          0         
103c             530.98     2.22       0.01       0          0         
104a             532.29     2.2        0.01       0          0         
104b             531.83     2.11       0.01       0          0         
104c             531.68     2.27       0.01       0          0         
104d             531.51     2.58       0.01       0          0         
104e             531.6      3.55       0.01       0          0         
105              531.14     3.51       0.01       0          0         
106              530.24     3.37       0.05       0          0         
1100             530.69     2          0.01       0          0         
1101             529.59     2          0.01       0          0         
1102             528.87     2          0.01       0          0         
1103             528.18     2          0.01       0          0         
1104             528        2          0.01       0          0         
1105             526.15     2          0.01       0          0         
1106             525.46     2          0.01       0          0         
112              532.39     2.61       0.01       0          0         
113              531.75     2.86       0.01       0          0         
114              531.02     3          0.01       0          0         
115              530.68     3          0.08       0          0         
115a             530.69     4.17       0.07       0          0         
116              530.51     3.41       0.06       0          0         
1169             527.7      2.04       0.01       0          0         
1185             528.9      2          0.01       0          0         
1188             530.2      2          0.01       0          0         
;249169.250; 700086.240
11d              543.08     3.26       0.04       0          0         
11e              541.32     2.9        0.04       0          0         
11f              539.65     2.8        0.04       0          0         
11g              538.75     2.8        0.04       0          0         
11h              538.05     2.75       0.04       0          0         
12               537.63     2.35       0.04       0          0         
121              529.65     3          0.05       0          0         
122              529.09     2.72       0.05       0          0         
123              528.58     2.64       0.07       0          0         
123a             528.55     2.57       0.05       0          0         
124              528.22     2.24       0.06       0          0         
124a             527.97     2.86       0.04       0          0         
125_SBW          527        3.77       0.05       0          0         
126_SBW          526.59     3.1        0.06       0          0         
127              527.01     2.79       0.01       0          0         
127.2            525.69     4.55       0.01       0          0         
127a_SBW         529.86     1.25       0.01       0          0         
127b__SBE_SW     529.59     1.52       0.01       0          0         
127c_SW          529.125    2.225      0.01       0          0         
127dSW           528.48     2.35       0.01       0          0         
127e_SBW(SW+RW)  527.87     2.1        0.01       0          0         
127f_SBW         527.85     1.97       0.01       0          0         
127gSW           530.11     1.2        0.01       0          0         
127hSW           530.41     1.32       0.01       0          0         
128a_Blindsch.   526.16     2          0.06       99         0         
12a              536.99     2.6        0.05       0          0         
12b              539.25     2.02       0.01       0          0         
13               536.45     2.67       0.04       0          0         
134a_SW          527.64     2.94       0.01       0          0         
134b_            527.52     2.88       0.01       0          0         
134c_SW          527.2      3.03       0.01       0          0         
134SW            527        3.061      0.01       0          0         
135MW            526.32     2.771      0.01       0          0         
136MW            526.15     2.591      0.02       0          0         
137              525.89     2.731      0.02       0          0         
138_SBW          525.77     2          0.07       0          0         
138_SBW_Entlastung 526.68     2          0          99         0         
138a_Mess-Sch.   525.865    3.155      0.05       0          0         
13a              535.99     2.7        0.01       0          0         
13b              541.19     2.74       0.01       0          0         
13c              539.48     2.3        0.01       0          0         
13d              538.68     1.42       0.01       0          0         
13e              538.15     1.78       0.01       0          0         
14               535.06     2.97       0.01       0          0         
141a             527.73     1.94       0.01       0          0         
142aSW           526.9      3.171      0.09       0          0         
142SW            527.4      2.671      0.01       0          0         
143              543.91     1.65       0.01       0          0         
144              541.64     1.76       0.01       0          0         
145              539.67     1.39       0.01       0          0         
146              538.48     4.06       0.01       0          0         
147              536.36     2.1        0.01       0          0         
147a             536.12     2.41       0.01       0          0         
148              536.85     2.32       0.01       0          0         
149              535.6      2.4        0.01       0          0         
14a              534.35     3.1        0.01       0          0         
14b              533.58     3.2        0.01       0          0         
15               532.94     3.2        0.02       0          0         
150              532.3      1.62       0.01       0          0         
150a             530.15     1.61       0.01       0          0         
150b             530.92     2.8        0.01       0          0         
150c             529.81     2.05       0.01       0          0         
150e             528.35     1.13       0.01       0          0         
153              529.38     2.32       0.01       0          0         
154_SBW          528.98     1.93       0.01       0          0         
155SW            528.63     2.02       0.01       0          0         
156a             528.11     2.67       0.01       0          0         
156b             528.35     2.41       0.01       0          0         
156SW            528.26     2.42       0.01       0          0         
157_SBW          527.18     3.63       0.03       0          0         
157a_SBW         527.39     3.47       0.03       0          0         
159a             526.85     3.82       0.03       0          0         
159b             529.16     1.741      0.01       0          0         
159c             527.78     2.571      0.01       0          0         
159d             527.31     3.361      0.01       0          0         
159MW            527.11     3.121      0.01       0          0         
15a              532.3      3.05       0.01       0          0         
160MW            526.54     2.951      0.01       0          0         
161              525.17     2.781      0.07       0          0         
161a             526.31     1.871      0          0          0         
162              524.68     2.611      0.07       0          0         
163              524.07     2.781      0.08       0          0         
164              523.72     2.571      0.07       0          0         
165              523.24     2.3        0.08       0          0         
166              522.9      2.42       0.08       0          0         
167_SBW          522.4      2.28       0.07       0          0         
17               534.66     3.04       0.01       0          0         
17a              535.57     1.74       0.01       0          0         
17b              535.17     1.86       0.01       0          0         
17c              536.43     2.69       0.01       0          0         
17d              536.21     2.19       0.01       0          0         
17e              536.04     1.74       0.01       0          0         
17f              535.89     1.61       0.01       0          0         
17g              535.74     1.41       0.01       0          0         
18               534.14     3          0.01       0          0         
19               533.61     3.18       0.01       0          0         
206              523        1.04       0.01       0          0         
206a             522.91     1.88       0.01       0          0         
206b             522.68     2.41       0.02       0          0         
207              527.61     2.32       0.01       0          0         
207a             526.85     3.1        0.01       0          0         
207b             527.14     2.96       0.01       0          0         
207c             527.22     3.03       0.01       0          0         
207e             528.61     1.64       0.01       0          0         
208              526.49     3.37       0.01       0          0         
209              526        2.8        0.01       0          0         
210              524.37     2.46       0.01       0          0         
211              523.3      2.02       0.01       0          0         
22a              528.92     3.61       0.02       0          0         
23               528.08     3.48       0.02       0          0         
26_SBW           535.85     2.88       0.01       0          0         
26a              535.51     3          0.01       0          0         
27               535.28     2.91       0.02       0          0         
27a              535.12     2.79       0.01       0          0         
27b              534.79     2.79       0.01       0          0         
28               534.44     2.61       0.01       0          0         
284              536.24     3.97       0.02       0          0         
284a             536.475    4.365      0.01       0          0         
284b             536.24     3.82       0.01       0          0         
285              535.9      3.59       0.01       0          0         
286              535.22     3.31       0.01       0          0         
287              534.63     2.83       0.01       0          0         
28a              534.2      2.61       0.01       0          0         
28b              533.17     2.731      0.01       0          0         
28c              531.13     2.621      0.01       0          0         
28d              529.99     2.461      0.01       0          0         
33               534.2      2          0.01       0          0         
33a              534.42     2.82       0.01       0          0         
33b              535.14     2.81       0.01       0          0         
34               533.72     2.92       0.01       0          0         
35a              532.32     3.13       0.01       0          0         
35b              533.1      3          0.01       0          0         
36               529.78     3.01       0.01       0          0         
36a              527.23     2.711      0.01       0          0         
37               529.25     3.111      0.03       0          0         
372              533.72     1.73       0.01       0          0         
373              533.53     1.72       0.01       0          0         
374              533.32     1.73       0.01       0          0         
375              533.17     1.86       0.01       0          0         
376              534.27     1.971      0.01       0          0         
376a             534.5      2          0.01       0          0         
377              532.56     2.471      0.01       0          0         
377a             535.78     1.431      0.01       0          0         
377b             533.82     1.841      0.01       0          0         
377C             533.19     2          0.01       0          0         
378              531.67     4.411      0.01       0          0         
379              530.4      2.181      0.01       0          0         
37a              529.9      2.911      0.01       0          0         
38               528.45     3.211      0.02       0          0         
381              535.51     1.85       0.01       0          0         
381a             536.68     4.03       0.01       0          0         
381b             536.17     3.5        0.01       0          0         
382              534.98     1.96       0.01       0          0         
382a             534.43     2.13       0.01       0          0         
382b             533.94     2.46       0.01       0          0         
384              533.75     2.64       0.01       0          0         
385              533.51     2.13       0.01       0          0         
386              532.96     2.15       0.02       0          0         
387              532.77     2.25       0.02       0          0         
388              532.16     2.69       0.02       0          0         
389              531.56     3.01       0.02       0          0         
38a              527.98     3.151      0.02       0          0         
38b              529.17     2.66       0.01       0          0         
39               527.44     2.981      0.02       0          0         
39a              527.11     2.861      0.03       0          0         
40               526.57     2.99       0.03       0          0         
40b              525.67     3.1        0.02       0          0         
40d              525.22     3.25       0.03       0          0         
40dRW            526.29     2.94       0.01       0          0         
40e              526.26     3.12       0.01       0          0         
40f              526.12     2.811      0.01       0          0         
40g              525.87     2.181      0.01       0          0         
40h              525.53     1.681      0.01       0          0         
40i              525.34     1.691      0.01       0          0         
41               525.21     3.3        0.02       0          0         
41a              524.91     3.28       0.02       0          0         
41b              524.28     2.84       0.02       0          0         
42               523.66     2.46       0.02       0          0         
42a              523.26     2.41       0.02       0          0         
446              525.02     2.16       0.01       0          0         
446a             525.93     1.801      0.01       0          0         
446b             525.65     2.121      0.01       0          0         
446c             525.12     2.11       0.01       0          0         
446d             525.85     2.111      0.01       0          0         
446e             525.54     2.291      0.01       0          0         
447              524.52     2.17       0.01       0          0         
447a             525.8      2.541      0.01       0          0         
447b             525.4      1.891      0.01       0          0         
447c             524.77     2.191      0.01       0          0         
447d             524.59     2.17       0.01       0          0         
448              523.96     1.76       0.02       0          0         
448a             524.78     2.14       0.01       0          0         
448b             524.36     1.641      0.01       0          0         
448c             523.92     1.561      0.01       0          0         
448d             523.84     3.531      0.02       0          0         
448e             525.41     2.13       0.01       0          0         
449              526.5      2.05       0.01       0          0         
449a             527.57     1.92       0.01       0          0         
449b             527.18     1.97       0.01       0          0         
449c             526.95     1.38       0.01       0          0         
449e             526.73     1.7        0.01       0          0         
449f             527        2          0.01       0          0         
449g             526.75     2.01       0.01       0          0         
449j             526.75     1.85       0.01       0          0         
45               523.63     1.431      0.02       0          0         
450              526.3      2.031      0.01       0          0         
450b             527.19     1.44       0.01       0          0         
451              525.78     1.48       0.01       0          0         
451a             526.54     1.051      0.01       0          0         
451b             526.32     1.4        0.01       0          0         
451c             526.05     1.74       0.01       0          0         
451d_            526.7      2          0.01       0          0         
451e             526.53     1.871      0.01       0          0         
451f             526.2      1.791      0.01       0          0         
452              525.5      2.12       0.01       0          0         
45a              523.23     1.58       0.02       0          0         
47               522.86     2.23       0.05       0          0         
47a              522.75     1.52       0.04       0          0         
48a_SBW          522.13     2.56       0.05       0          0         
48b_SBW          522.14     2.55       0.01       0          0         
48c_SBW          522.18     2.67       0.08       0          0         
50_SBW           522.54     2.41       0.01       0          0         
508_SW           539.03     2.47       0.01       0          0         
509_SW           538.75     2.64       0.01       0          0         
510_SW           538.32     2.55       0.01       0          0         
52_SW            538.01     3.26       0.01       0          0         
522_SW           539.41     3.24       0.01       0          0         
523_SW           538.52     3.34       0.01       0          0         
524_SW           540.29     2.97       0.01       0          0         
525_SW           539.95     2.26       0.01       0          0         
526_SW           539.31     3.17       0.01       0          0         
526a_SW          539.51     2.76       0.01       0          0         
531_SW           537.53     3.23       0.01       0          0         
532_SW           537.23     3.25       0.01       0          0         
533_SW           536.84     3.3        0.01       0          0         
534_SW           536.52     3.27       0.01       0          0         
55               529.88     2.66       0.03       0          0         
555              536.08     2.72       0.04       0          0         
556              534.57     2.52       0.03       0          0         
557              532.8      2.31       0.04       0          0         
558              531.67     2.72       0.04       0          0         
565              536.89     2.87       0.01       0          0         
566              536.27     2.28       0.01       0          0         
567              535.75     1.93       0.01       0          0         
56a              533.45     4.34       0.01       0          0         
57_SBW           526.45     3.2        0.03       0          0         
571              532.34     4.79       0.01       0          0         
572              532.22     4.89       0.01       0          0         
573              531.74     2          0.01       0          0         
574              531.51     2          0.01       0          0         
575              531.33     2          0.01       0          0         
576              531.5      2          0.01       0          0         
576a             532.67     2          0.01       0          0         
577_SBW          527.93     3.15       0.03       0          0         
578              531.2      2          0.01       0          0         
579              526.63     2          0.02       0          0         
579a             530.67     2          0.01       0          0         
579b             529        2          0.01       0          0         
579c             527.28     2          0.01       0          0         
579d             526.97     2          0.01       0          0         
58_SBW           520.74     3.45       0.01       0          0         
58_Spezialsch._  520.74     3.33       0.12       0          0         
581_SBW          525.39     2.64       0.04       0          0         
582_SBW          524.1      3.77       0.03       0          0         
583_SBW          522.6      3.14       0.04       0          0         
584_SBW          521.73     2.45       0.05       0          0         
585_SBW          521.19     2.93       0.05       0          0         
591              520.493    3.04       0.18       0          0         
591a             520.687    3.23       0.14       0          0         
591bSW_          524.9      1.34       0.01       0          0         
591cSW           524.12     1.72       0.01       0          0         
591dSW           523.69     2.5        0.01       0          0         
591e             523.23     2.42       0.01       0          0         
591f             522.91     2.31       0.01       0          0         
591g             522.3      1.57       0.01       0          0         
591h             521.96     2.08       0.01       0          0         
591i             521.82     2.39       0.01       0          0         
591j             521.66     2.32       0.01       0          0         
591m             525.72     1.72       0.01       0          0         
591n             523.77     1.38       0.01       0          0         
591o             522.89     1.51       0.01       0          0         
591p             522.48     1.65       0.01       0          0         
591q             521.93     1.77       0.01       0          0         
591r             523.77     2.01       0.01       0          0         
592              520.271    2.819      0.23       0          0         
593              520.06     2.394      0.1        0          0         
594              519.79     1.969      0.1        0          0         
596              519.54     3.23       0.01       0          0         
596__Spez.sch.   520.83     2          0.01       0          0         
596a             520.21     2.66       0.1        0          0         
596b             521.77     1.44       0.01       0          0         
596c             521.59     1.35       0.01       0          0         
596d             521.23     1.45       0.01       0          0         
596e             520.77     2.1        0.06       0          0         
597.2_SBW        520        1.64       0.03       0          0         
597_SBW          518.68     2.92       0.05       0          0         
597a             519.67     1.851      0.12       0          0         
597b             524.21     3.97       0.01       0          0         
597c             522.67     2.86       0.01       0          0         
597d             522.48     2.8        0.01       0          0         
597e             521.8      4.85       0.01       0          0         
597f             521.21     5.05       0.01       0          0         
597g             520.99     4.86       0.02       0          0         
597h             520.58     2.25       0.03       0          0         
597i             522.05     3.37       0.01       0          0         
597j             521.58     4.25       0.01       0          0         
597k             521.27     4.83       0.01       0          0         
597l             527.01     1.87       0.01       0          0         
597m             524.89     4.08       0.01       0          0         
597n             523.83     3.79       0.01       0          0         
598              518.46     2.63       0.14       0          0         
5fSWRW           533.88     2.89       0.01       0          0         
5g_SBW           533.48     2.9        0.01       0          0         
5h               534.59     1.81       0.01       0          0         
6_SBW            533.15     3.05       0.01       0          0         
600_SBW          535.84     2.98       0.04       0          0         
601              535.43     1.76       0.01       0          0         
602              535.11     1.94       0.01       0          0         
603              535.35     1.98       0.04       0          0         
603A_SBW         534.8      2.12       0.05       0          0         
603alt_SBW       534.62     2.57       0.01       0          0         
604              534.65     2.05       0.05       0          0         
604_SBW          534.25     2.52       0.01       0          0         
604a             535.17     1.12       0.01       0          0         
604b             535.06     1.4        0.01       0          0         
604c             534.98     1.7        0.01       0          0         
605              534.4      1.99       0.05       0          0         
605alt           533.89     2.57       0.01       0          0         
606              534.13     1.45       0.07       0          0         
606alt           533.56     2.8        0.01       0          0         
607_SBW          533.37     3.13       0.01       0          0         
608              535.93     1.6        0.01       0          0         
609              535.62     1.43       0.01       0          0         
6a               533.01     3.21       0.02       0          0         
6b               532.99     3          0.01       0          0         
7                532.65     3.32       0.01       0          0         
7a               532.38     3.58       0.02       0          0         
8                532.19     3.57       0.01       0          0         
801_SBW          515.89     2.85       0.02       0          0         
801b             517.3      2.97       0.01       0          0         
801c             516.8      2.2        0.01       0          0         
801d             516.42     2.84       0.02       0          0         
801e             519.37     5.12       0.01       0          0         
801f             518.79     3.03       0.01       0          0         
801g             519.66     4.41       0.01       0          0         
801h             516.96     2.5        0.01       0          0         
801i             516.7      2.24       0.01       0          0         
802              515.53     2.84       0.02       0          0         
803_SBW_1        515.24     2.53       0.02       0          0         
803a             515.96     2.2        0.01       0          0         
804              514.92     2.48       0.02       0          0         
805_SBW          514.66     3.02       0.03       0          0         
805a             517.16     3          0.01       0          0         
805b             516.59     2.9        0.01       0          0         
805c             516.28     2.89       0.01       0          0         
805d             515.91     2.88       0.02       0          0         
805e             515.69     2.55       0.02       0          0         
805f             515.43     2.43       0.02       0          0         
805g             515.03     3          0.02       0          0         
805h             519.61     3.13       0.01       0          0         
805i             516.59     3.24       0.03       0          0         
805j             516.05     2.66       0.01       0          0         
805k             515.78     2.38       0.01       0          0         
8a               531.88     3.45       0.01       0          0         
9                531.51     3.17       0.02       0          0         
K1               536.93     2          0.01       0          0         
Kanalanfang      527.7      2          0.01       0          0         
Kanalanfang2     531.13     2          0.01       0          0         
KNO4983          527        3.05       0.01       0          0         
L43              531.17     2          0.03       0          0         
L45              531.35     3.13       0.02       0          0         
Node_1           519.54     2          0.1        0          0         
Node_12          533.97     2.53       0.05       0          0         
Node_3           517.72     3.82       0.57       0          0         
Node_5           518.06     2.94       0          0          0         
Node_7           514.65     1.88       0.01       0          0         
P1005            530.25     1.3        0.01       0          0         
P1053            529.1      1          0.01       0          0         
P366             517.8      2          0.01       0          0         
R40              527.7      1.86       0.01       0          0         
RA_40a_SBW       525.99     3.18       0.02       0          0         
RA158            526.97     2          0.01       0          0         
RA40a            526.4      2.77       0.01       0          0         
RK59_Deckel01    518.08     2.91       0.33       0          0         
RK59_MW          519.61     2          0.1        0          0         
;Anfnaghöhe: 525.88 / 526.1
RÜB_128          525.88     3.09       0.07       0          0         
SK_102_Steuerschacht 530.93     2.62       0.06       0          0         
SK102.2          531.66     3.95       0.01       0          0         
SK102_SBW        531.68     3.95       0.05       0          0         
SS8              527.03     2          0.01       0          0         
VS_22            529.61     2          0.02       0          0         
B10              645.2      3.39       0          0          0         
B101             630.9      2.87       0          0          0         
B102             632.39     2.73       0          0          0         
B103             632.96     3.26       0          0          0         
B104             634.54     3.77       0          0          0         
B105             636.37     3.7        0          0          0         
B106             638.31     3.08       0          0          0         
B107             646.8      1.89       0          0          0         
B11              647.02     3.63       0          0          0         
B111             642.74     1.82       0          0          0         
B12              647.45     4.55       0          0          0         
B121             636.43     3.68       0          0          0         
B122             637.61     2.37       0          0          0         
B123             638.27     1.84       0          0          0         
B124             639.66     2.12       0          0          0         
B13              647.81     3.42       0          0          0         
B131             625.41     3.69       0          0          0         
B132             625.64     1.97       0          0          0         
B133             625.91     1.71       0          0          0         
B133R            625.02     1.98       0          0          0         
B134             626.49     3.74       0          0          0         
B134R            626.36     2.26       0          0          0         
B135             628.16     3.97       0          0          0         
B135R            630.3      1.4        0          0          0         
B136             629.35     4.24       0          0          0         
B136R            632.2      1.99       1.26       0          0         
B137             630.07     4.3        0          0          0         
B138             630.18     4.32       0          0          0         
B138R            633.07     1.99       0          0          0         
B139             631.23     4.15       0          0          0         
B139R            633.93     1.37       0          0          0         
B140             632.23     4.23       0          0          0         
B141             632.49     4.25       0          0          0         
B142             633        3.49       0          0          0         
B143             633.56     2.95       0          0          0         
B151             626.46     2.3        0          0          0         
B152             627.24     3.93       0          0          0         
B153             629.67     2.68       0          0          0         
B161             629.71     4.37       0          0          0         
B171             630.83     4          0          0          0         
B172             631.4      3.6        0          0          0         
B173             632.04     3.55       0          0          0         
B181             631.99     3.42       0          0          0         
B191             633.49     3.26       0          0          0         
B2               625.00     2.78       0          0          0         
B201             626.01     2.23       0          0          0         
B202             626.68     3.71       0          0          0         
B203             627.08     2.86       0          0          0         
B204             627.74     3.41       0          0          0         
B205             629.20     1.67       0          0          0         
B21              633.64     1.83       0          0          0         
B212R            618.3      3.3        0          0          0         
B213R            619.24     2.8        0          0          0         
B214R            620.22     2.86       0          0          0         
B215R            621.76     3.75       0          0          0         
B22              639.34     1.96       0          0          0         
B3               626.32     2.56       0          0          0         
B31              643.37     1.84       0          0          0         
B4               626.83     2.3        0          0          0         
B41              648.12     2.7        0          0          0         
B42              651.35     1.2        0          0          0         
B43              652.19     1.6        0          0          0         
B5               628.4      2.23       0          0          0         
B51              627.6      2.7        0          0          0         
B52              628.4      3.05       0          0          0         
B53              629.43     4.04       0          0          0         
B54              630.48     2.11       0          0          0         
B55              632.26     2.51       0          0          0         
B56              633.28     2.51       0          0          0         
B57              638.3      2.46       0          0          0         
B58              641.99     2.56       0          0          0         
B59              645.46     4.58       0          0          0         
B6               632.01     2.42       0          0          0         
B60              647.58     2.93       0          0          0         
B61              650.09     3.25       0          0          0         
B62              651.49     2.58       0          0          0         
B63              651.89     2.96       0          0          0         
B7               636.81     2.48       0          0          0         
B71              651.98     2.5        0          0          0         
B72              653.93     2.46       0          0          0         
B73              655.39     2.75       0          0          0         
B74              657.69     2.82       0          0          0         
B8               641.88     2.18       0          0          0         
B8.1             643.72     2.28       0          0          0         
B81              642.48     2.85       0          0          0         
B82              644.12     2.36       0          0          0         
B83              647.65     2.81       0          0          0         
B84              651.70     2.87       0          0          0         
B85              652.83     3.81       0          0          0         
B86              653.94     3.18       0          0          0         
B9               644.18     2.68       0          0          0         
B91              644.93     1.54       0          0          0         
B92              648.39     1.98       0          0          0         
B93              648.75     1.97       0          0          0         
B94              650.73     3.08       0          0          0         
B95              651.12     3.47       0          0          0         
C10              619.11     2.36       0          0          0         
C11              622.74     2.64       0          0          0         
C2               600.43     2.44       0          0          0         
C22R             607.51     1.34       0          0          0         
C23R             608.07     1.38       0          0          0         
C24R             610        1.97       0          0          0         
C25R             612.47     2.2        0          0          0         
C3               601.63     2.39       0          0          0         
C31              600.69     2.35       0          0          0         
C31R             603.33     1.7        0          0          0         
C32              601.89     2.53       0          0          0         
C32R             603.59     1.44       0          0          0         
C33              603.82     1.88       0          0          0         
C33R             604.63     1.24       0          0          0         
C34              605.8      2.54       0          0          0         
C34R             608.03     1.5        0          0          0         
C35              609.98     02.05      0          0          0         
C35R             609.12     1.54       0          0          0         
C36              616.94     1.45       0          0          0         
C36R             609.42     1.45       0          0          0         
C37              619.1      1.41       0          0          0         
C37R             612.17     1.51       0          0          0         
C38              620.28     1.6        0          0          0         
C38R             616.8      1.55       0          0          0         
C39              624.36     2.63       0          0          0         
C39R             621.03     1.98       0          0          0         
C4               604.8      2.24       0          0          0         
C40              627.22     1.57       0          0          0         
C40R             623.67     1.43       0          0          0         
C41              628.87     0.74       0          0          0         
C41R             624.61     1.5        0          0          0         
C43              631.06     2.42       0          0          0         
C44              634.73     2.94       0          0          0         
C5               606.69     2.12       0          0          0         
C51              610.15     1.67       0          0          0         
C51R             617.5      1.22       0          0          0         
C52              611.31     1.74       0          0          0         
C52R             617.84     0.96       0          0          0         
C53              612.02     1.93       0          0          0         
C53R             619.93     1.22       0          0          0         
C54              613.71     2.28       0          0          0         
C54R             622.22     4.78       0          0          0         
C55R             623.17     4.98       0          0          0         
C6               608.18     2.2        0          0          0         
C61              606.96     1.3        0          0          0         
C7               610.37     2          0          0          0         
C71              622.18     4.8        0          0          0         
C72              623.14     5.06       0          0          0         
C8               612.07     4.12       0          0          0         
C9               616.43     2.3        0          0          0         
CC42             629.72     2.47       0          0          0         
D10              617.97     1.98       0          0          0         
D101             611.35     2.2        0          0          0         
D101R            611.98     1.56       0          0          0         
D11              621.62     1.35       0          0          0         
D111             611.86     2.4        0          0          0         
D111R            611.97     1.99       0          0          0         
D112             613.9      4.5        0          0          0         
D112R            615.07     3.33       0          0          0         
D113             614.5      2.16       0          0          0         
D113RR           615.61     1.96       0          0          0         
D114             614.92     3.04       0          0          0         
D114R            616.08     1.8        0          0          0         
D121             607.1      2.91       0          0          0         
D121R            608.17     1.73       0          0          0         
D131R            606.5      1.66       0          0          0         
D132R            607.45     1.8        0          0          0         
D133R            608.36     1.39       0          0          0         
D134R            608.6      1.47       0          0          0         
D135R            609.19     1.61       0          0          0         
D136R            610.97     1.89       0          0          0         
D137R            611.65     1.85       0          0          0         
D141R            609.78     1.81       0          0          0         
D151R            609.88     1.36       0          0          0         
D2               603.56     1.46       0          0          0         
D21              606.82     2.17       0          0          0         
D22              608.92     2.34       0          0          0         
D23              611.03     2.22       0          0          0         
D24              612.89     2.32       0          0          0         
D3               603.75     2.53       0          0          0         
D30R             605.81     1.37       0          0          0         
D31              604.74     2.44       0          0          0         
D31R             605.98     1.35       0          0          0         
D32              605.23     2.72       0          0          0         
D32R             606.57     2.37       0          0          0         
D33              606.44     2.56       0          0          0         
D34              607.64     2.55       0          0          0         
D35              607.93     2.45       0          0          0         
D36              612.88     1.86       0          0          0         
D37              616.62     1.91       0          0          0         
D38              621.09     2.6        0          0          0         
D39              623.9      3.07       0          0          0         
D4               604.43     2.89       0          0          0         
D40              626.57     13.09      0          0          0         
D41              631.63     3.17       0          0          0         
D42              635.76     3.09       0          0          0         
D5               605.59     1.91       0          0          0         
D51              623.82     2.82       0          0          0         
D52              628.6      2.83       0          0          0         
D53              635.5      1.91       0          0          0         
D54              636.17     1.01       0          0          0         
D6               606.56     2.39       0          0          0         
D61              625.57     2.17       0          0          0         
D62              632.02     2.12       0          0          0         
D63              633.8      2.17       0          0          0         
D64              637.73     1.64       0          0          0         
D65              640.23     2.38       0          0          0         
D66              641.91     2.27       0          0          0         
D7               611.65     1.85       0          0          0         
D71              639.01     2.36       0          0          0         
D8               612.65     1.97       0          0          0         
D81              608.11     2.42       0          0          0         
D82              609.02     2.46       0          0          0         
D83              609.22     2.5        0          0          0         
D84              610.36     2.93       0          0          0         
D85              611.5      3.3        0          0          0         
D86              612.51     3.76       0          0          0         
D87              613.49     3.16       0          0          0         
D88              614.45     3.64       0          0          0         
D89              615.06     3.17       0          0          0         
D9               615.47     1.38       0          0          0         
D90R             606.61     1.59       0          0          0         
D91              605.81     2.59       0          0          0         
D91R             607.03     1.52       0          0          0         
D92              606.46     4.39       0          0          0         
D92R             607.54     3.21       0          0          0         
D93              606.95     4.18       0          0          0         
D94              609.43     2.94       0          0          0         
D94R             611.56     1.85       0          0          0         
D95              610.47     3.65       0          0          0         
D95R             611.68     2.22       0          0          0         
D96              613.44     3.59       0          0          0         
D96R             614.91     2.13       0          0          0         
E10              586.86     3.4        0          0          0         
E11              587.22     3.41       0          0          0         
E12              587.63     3.22       0          0          0         
E13              588.03     2.88       0          0          0         
E14              591.34     2.65       0          0          0         
E15              607.71     2.38       0          0          0         
E16              619.5      1.34       0          0          0         
E17              625.05     1.15       0          0          0         
E18              628.97     1.05       0          0          0         
E2               584.87     2.74       0          0          0         
E3               585.19     2.92       0          0          0         
E4               585.5      3.21       0          0          0         
E41              586.19     1.95       0          0          0         
E44              611.89     1.44       0          0          0         
E45              613.89     2.72       0          0          0         
E46              617.13     1.58       0          0          0         
E47              619.48     1.54       0          0          0         
E48              620.18     1.89       0          0          0         
E49              622.44     2.18       0          0          0         
E5               585.74     3.26       0          0          0         
E51              616.27     2.25       0          0          0         
E6               585.86     3.07       0          0          0         
E61              586.37     5.35       0          0          0         
E62              594.78     2.46       0          0          0         
E63              602.2      2022       0          0          0         
E64              610.65     2.5        0          0          0         
E65              618.56     2.77       0          0          0         
E66              619.64     2.91       0          0          0         
E67              621.06     3          0          0          0         
E68              625.32     2.35       0          0          0         
E69              628.65     2.25       0          0          0         
E7               585.98     3.14       0          0          0         
E70              631.89     2.82       0          0          0         
E71              631.78     2.85       0          0          0         
E73              632.32     1.17       0          0          0         
E74              632.65     2.1        0          0          0         
E75              633.05     1.95       0          0          0         
E76              633.24     0.92       0          0          0         
E8               586.46     3.35       0          0          0         
E81              624.54     2.67       0          0          0         
E82              630.27     2.77       0          0          0         
E83              631.4      2.55       0          0          0         
E84              633.92     2.5        0          0          0         
E85              636.94     2.55       0          0          0         
E86              639.7      2.64       0          0          0         
E9               586.51     3.62       0          0          0         
E91              630.71     1.78       0          0          0         
E92              631.82     2.1        0          0          0         
E93              632.37     2.25       0          0          0         
E94              635.11     0.72       0          0          0         
F10              582.29     5.33       0          0          0         
F101             616.65     2.56       0          0          0         
F102             620.09     1.27       0          0          0         
F103             621.66     2.12       0          0          0         
F104             622.7      1.46       0          0          0         
F105             623.81     1.502      0          0          0         
F106             624.79     1.97       0          0          0         
F107             625.77     1.76       0          0          0         
F108             626.83     1.76       0          0          0         
F109             628.33     1.19       0          0          0         
F11              582.85     5.11       0          0          0         
F110             629        1.6        0          0          0         
F111             630.08     4          0          0          0         
F112             630.86     1.49       0          0          0         
F113             631.49     2.24       0          0          0         
F114             633.89     1.09       0          0          0         
F115             639.49     1.89       0          0          0         
F116             644.44     1.52       0          0          0         
F117             649.58     1.6        0          0          0         
F118             650.88     3.02       0          0          0         
F119             656.85     1.58       0          0          0         
F120             658.52     1.68       0          0          0         
F121             662.03     1.6        0          0          0         
F122             665.77     2.11       0          0          0         
F123             671.2      2.12       0          0          0         
F13              583.18     3.82       0          0          0         
F131             633.74     2.05       0          0          0         
F132             636.19     1.43       0          0          0         
F133             637.39     3.05       0          0          0         
F134             638.12     2.22       0          0          0         
F135             641.34     2.34       0          0          0         
F14              583.49     3.91       0          0          0         
F141             589.43     2.75       0          0          0         
F142             590.89     1.9        0          0          0         
F143             592.64     1.25       0          0          0         
F144             593.66     1.26       0          0          0         
F145             593.86     1.75       0          0          0         
F146             594.36     1.69       0          0          0         
F15              586.23     1.57       0          0          0         
F151             595.51     1.83       0          0          0         
F152             598.78     2.15       0          0          0         
F153             599.26     1.24       0          0          0         
F154             602.73     0.72       0          0          0         
F16              588.11     1.89       0          0          0         
F161             590.72     4.13       0          0          0         
F162             592.92     3.06       0          0          0         
F163             593.7      2.45       0          0          0         
F17              588.32     2.25       0          0          0         
F171             583.06     3.82       0          0          0         
F172             583.16     3.83       0          0          0         
F173             583.43     4.33       0          0          0         
F174             583.5      4.71       0          0          0         
F175             583.83     3.55       0          0          0         
F176             584.07     2.93       0          0          0         
F177             584.31     2.53       0          0          0         
F18              589.25     3.03       0          0          0         
F181             613.05     1.7        0          0          0         
F182             614.14     1.95       0          0          0         
F183             618.2      2.31       0          0          0         
F184             620.95     3          0          0          0         
F185             622.95     2.71       0          0          0         
F19              592.12     2.26       0          0          0         
F191             618.71     2.27       0          0          0         
F192             620.33     2.23       0          0          0         
F2               574.55     3.22       0          0          0         
F20              594.2      1.65       0          0          0         
F201             598.16     0          0          0          0         
F202             600.97     4.03       0          0          0         
F204             603.69     1.84       0          0          0         
F205             604.61     1.14       0          0          0         
F206             605.56     1.26       0          0          0         
F207             610        1.34       0          0          0         
F208             612.9      612.9      51         0          0         
F208R            613.1      3.9        0          0          0         
F209             613.31     3.18       0          0          0         
F209R            613.5      4.6        0          0          0         
F21              595.46     0.98       0          0          0         
F210             613.8      4.85       0          0          0         
F210R            614        4.65       0          0          0         
F211             622.16     2.32       0          0          0         
F211R            622.36     2.09       0          0          0         
F212             622.61     3.26       0          0          0         
F212R            622.36     2.09       0          0          0         
F22              596.97     2.22       0          0          0         
F221             617.61     617.61     2.64       0          0         
F221R            617.71     2.57       0          0          0         
F222             621.97     4.15       0          0          0         
F222R            622.17     3.97       0          0          0         
F23              598.32     2.15       0          0          0         
F231             614.2      7.6        0          0          0         
F231R            614.55     7.25       0          0          0         
F24              599.31     2.23       0          0          0         
F241             580.73     2.82       0          0          0         
F242             584        2.56       0          0          0         
F243             587.08     2.57       0          0          0         
F244             589.52     2.65       0          0          0         
F245             590.85     2.36       0          0          0         
F246             591.73     2.36       0          0          0         
F247             594.08     2.99       0          0          0         
F248             595.06     2.63       0          0          0         
F249             595.47     3.39       0          0          0         
F25              600.02     2.23       0          0          0         
F250             597.48     2.6        0          0          0         
F251             598.15     3.14       0          0          0         
F253             599.13     2.75       0          0          0         
F254             600.28     2.31       0          0          0         
F255             600.78     2.54       0          0          0         
F256             599.53     2.24       0          0          0         
F257             600.73     1.9        0          0          0         
F26              602.07     1.61       0          0          0         
F27              605.85     2.1        0          0          0         
F3               576.57     3.98       0          0          0         
F31              601.52     2.33       0          0          0         
F32              602.76     1.84       0          0          0         
F4               577.02     3.6        0          0          0         
F41              604.13     2.17       0          0          0         
F42              608.14     3          0          0          0         
F5               577.23     2.72       0          0          0         
F51              584.3      3.76       0          0          0         
F51R             585.1      2.94       0          0          0         
F52              585.64     4.78       0          0          0         
F52R             586.45     4.12       0          0          0         
F6               577.47     4.36       0          0          0         
F61              578.29     58.54      0          0          0         
F62              578.77     3.56       0          0          0         
F63              579.81     2.96       0          0          0         
F64              580.04     4.42       0          0          0         
F64R             582.13     2.16       0          0          0         
F65              580.91     5.11       0          0          0         
F65R             582.82     3.17       0          0          0         
F66R             583.26     4.06       0          0          0         
;edit_fbl
F67R             583.5      3.61       0          0          0         
F68R             583.9      3.3        0          0          0         
F69R             584.0      4          0          0          0         
F7               579.05     3.27       0          0          0         
F71              580.93     4.26       0          0          0         
F71R             583.01     2.15       0          0          0         
F8               580.66     4.05       0          0          0         
F81              584.15     1.96       0          0          0         
F81R             584.23     3.88       0          0          0         
F82              585.51     1.9        0          0          0         
F82R             584.86     2.91       0          0          0         
F83              588.44     4.11       0          0          0         
F83R             585.79     2.21       0          0          0         
F84              589        3.62       0          0          0         
F84R             586.84     1.16       0          0          0         
F85              590.82     3.99       0          0          0         
F85R             587.4      1.6        0          0          0         
F86              592.26     3.156      0          0          0         
F86R             587.5      1.5        0          0          0         
F87              595.96     593.86     0          0          0         
F88              594.66     1.96       0          0          0         
F89              596.67     2.85       0          0          0         
F9               581.79     4.79       0          0          0         
F90              603.42     3.97       0          0          0         
F91              605.32     3.79       0          0          0         
F92              607.73     1.86       0          0          0         
F93              610.62     1.93       0          0          0         
F94              612.23     2.85       0          0          0         
F95              613.87     2.39       0          0          0         
FF203            602.21     3.11       0          0          0         
10_              551.83     1.87       0.04       0          0         
10a              550.97     1.68       0.04       0          0         
10b              549.52     1.68       0.04       0          0         
10c              548.44     2.8        0.04       0          0         
11               547.61     3.9        0.05       0          0         
11a              547        2.85       0.04       0          0         
11b              545.57     3.05       0.04       0          0         
11c              544.36     3.11       0.04       0          0         
2c               569.08     4.3        0.03       0          0         
2d               565.84     2.25       0.03       0          0         
2e               560.73     4.3        0.03       0          0         
2f               553.29     3.01       0.04       0          0         
411              556.33     4.65       0.01       0          0         
412              555.15     3.26       0.01       0          0         
413              553.01     2.26       0.01       0          0         
414              550.53     1.46       0.01       0          0         
415              547.91     1.5        0.01       0          0         
416              546.79     1.68       0.01       0          0         
rus4             571.27     5          0          0          0         

[OUTFALLS]
;;Name           Elevation  Type       Stage Data       Gated    Route To        
;;-------------- ---------- ---------- ---------------- -------- ----------------
103d_SBW         530.77     FREE                        NO                       
ARA_Fehraltorf   519.44     FREE                        NO                       
Bacheinlauf1     525.25     FREE                        NO                       
Bacheinlauf2     525.25     FREE                        NO                       
Bacheinlauf30    517.72     FREE                        NO                       
Bacheinlauf47    525.82     FREE                        NO                       
Node_8           514.29     FREE                        NO                       
Notentlastung_48b 522.07     FREE                        NO                       
;edit_fbl
Outfall_Chronentobelbach 610        FREE                        NO                       
Outfall_R_Dorfbach 602        FREE                        NO                       
D4R              605.3      FREE                        NO                       
Outfall_RÜB_D    0          FREE                        NO                       
F207R            607.24     FREE                        NO                       
R63F             581.7      FREE                        NO                       
outfall_wilhof   582        FREE                        NO                       
Outfall_R_Dorfbach1 602        FREE                        NO                       
D4R1             605        FREE                        NO                       
rohrbach         560        FREE                        NO                       

[STORAGE]
;;Name           Elev.    MaxDepth   InitDepth  Shape      Curve Name/Params            N/A      Fevap    Psi      Ksat     IMD     
;;-------------- -------- ---------- ----------- ---------- ---------------------------- -------- --------          -------- --------
;Invert Elevation changed from 516.92 to 515.64
;Max. Depth changed from 4 to 3.51
FB_ARA           515.54   8          0          TABULAR    FB_ARA_Volumen               0        0       
;Changed Invert Elevation from 517.23 to 515.54
RB_59            516.54   3.8        0          TABULAR    RÜB_59_Volumen               0        0       
;Invert Elevation changed from 524.54 to 524.0m
;01/12/2017, fbl: adapt stoCurve,
RÜB_Usterstrasse 524      4.5        0          TABULAR    RÜB_Usterstrasse             0        0       
RÜB+PW80_Industrie 512.16   5.6        0          TABULAR    RÜB_Industrie_Volumen        0        0       
GU63_Pumpensch.  524.40   5.75       0.01       TABULAR    PW_R+R                       0        0       
RÜB_Kronentobel  623.62   4          0          FUNCTIONAL 1         0         0        0        0       
RÜB_Berggasse    599.05   2.95       0          FUNCTIONAL 1         0         0        0        0       
RÜ_Poststrasse   603.26   1.23       0          FUNCTIONAL 1         0         0        0        0       
RÜB_Wilhof       583.91   3.12       0          FUNCTIONAL 1         0         0        0        0       
RKB_Morgenthal   571.27   4.5        0          TABULAR    RKB_Morgenthal2              0        0       

[CONDUITS]
;;Name           From Node        To Node          Length     Roughness  InOffset   OutOffset  InitFlow   MaxFlow   
;;-------------- ---------------- ---------------- ---------- ---------- ---------- ---------- ---------- ----------
102c-L188        102c             SK102_SBW        10.362     0.011764706 0          0.1        0          0         
102f-L226        102f             102g             28.509     0.011764706 0          0          0          0         
102k-L224        102k             102d             28.919     0.011764706 0          0.02       0          0         
103b-L162        103b             103c             58.971     0.011764706 0          0          0          0         
104a-L229        104a             104b             57.021     0.011764706 0          0.01       0          0         
104e-105_SBW     104e             105              55.190     0.011764706 0          0.07       0          0         
106-121          106              121              61.136     0.011764706 0          0          0          0         
1100-1101        1100             1101             22.670     0.011764706 0          0.02       0          0         
1101-1102        1101             1102             41.118     0.011764706 0          0          0          0         
1102-1103        1102             1103             37.723     0.011764706 0          0          0          0         
1103-1104        1103             1104             6.820      0.011764706 0          0.02       0          0         
1104-1105        1104             1105             24.458     0.011764706 0          0.01       0          0         
1105-1106        1105             1106             19.290     0.011764706 0          0          0          0         
1106-41          1106             41               5.468      0.011764706 0          0          0          0         
115a-116         115a             116              39.971     0.011764706 0          0          0          0         
116-106          116              106              29.678     0.011764706 0          0.09       0          0         
11d-GU25         11d              11e              70.915     0.011764706 0          0          0          0         
11f-11g          11f              11g              35.056     0.011764706 0          0          0          0         
11g-11h          11g              11h              34.998     0.011764706 0          0          0          0         
121-122          121              122              63.778     0.011764706 0          0          0          0         
12-12a           12               12a              34.407     0.011764706 0          0          0          0         
122-123          122              123              53.500     0.011764706 0          0          0          0         
123-123a         123              123a             13.544     0.011764706 0          0          0          0         
123a-124         123a             124              49.474     0.011764706 0          0          0          0         
124-124a         124              124a             37.671     0.011764706 0          0          0          0         
125-126          125_SBW          126_SBW          69.626     0.011764706 0          0          0          0         
126-128a         126_SBW          128a_Blindsch.   112.833    0.011764706 0          0.01       0          0         
127.2-127        127.2            GU63_Pumpensch.  14.376     0.011764706 0          0          0          0         
127cSW-127dSW    127c_SW          127dSW           97.068     0.011764706 0          0          0          0         
127d_SW-127e_SW  127dSW           127e_SBW(SW+RW)  36.115     0.011764706 0          0          0          0         
127e_SW-127f_SBW 127e_SBW(SW+RW)  127f_SBW         41.168     0.011764706 0          0          0          0         
127f_SBW-127.2   127f_SBW         127.2            30.882     0.011764706 0          0          0          0         
127gSW-L64       127gSW           127a_SBW         68.928     0.011764706 0          0          0          0         
127hSW-L5        127hSW           P1005            45.415     0.011764706 0          0          0          0         
128.1-128a.1     128a_Blindsch.   RÜB_128          16.447     0.011764706 0          0          0          0         
12b-12           12b              12               43.842     0.011764706 0          0          0          0         
134a_SW-134b_SW  134a_SW          134b_            15.929     0.011764706 0          0          0          0         
134b_SW-134c_SW  134b_            134c_SW          40.336     0.011764706 0          0          0          0         
134c_SW-134SW    134c_SW          KNO4983          10.437     0.011764706 0          0          0          0         
134SW-135MW      134SW            135MW            35.003     0.011764706 0          0          0          0         
135-136          135MW            136MW            25.509     0.011764706 0          0          0          0         
136MW-137        136MW            137              61.871     0.011764706 0          0          0          0         
137-138.1        137              138_SBW          16.269     0.011764706 0          0.09       0          0         
138.3-161        138_SBW_Entlastung 161a             44.049     0.011764706 0          0          0          0         
138a-138.2       138a_Mess-Sch.   138_SBW          15.891     0.011764706 0          0.04       0          0         
141a-142SW       141a             142SW            52.403     0.011764706 0          0.08       0          0         
142aSW-134RW     KNO4983          134SW            1.850      0.011764706 0          0          0          0         
142aSW-134RW(39196) 142aSW           KNO4983          12.127     0.011764706 0          0          0          0         
142SW-142aSW     142SW            142aSW           33.696     0.011764706 0          0          0          0         
143-144          143              144              55.083     0.011764706 0          0          0          0         
144-146          144              146              16.931     0.011764706 0          0          0          0         
145-L452         145              146              42.925     0.011764706 0          0          0          0         
150b-150c        150b             150c             50.311     0.011764706 0          0          0          0         
157.3-125.1      157_SBW          125_SBW          38.758     0.011764706 0          0.02       0          0         
157a-449a        RA158            449a             7.497      0.011764706 0          0          0          0         
157a-L87         157a_SBW         157_SBW          10.016     0.011764706 0          0.13       0          0         
159b-159c        159b             159c             37.478     0.011764706 0          0          0          0         
159c-159d        159c             159d             13.015     0.011764706 0          0          0          0         
159d-L119        159d             159MW            7.368      0.011764706 0          0          0          0         
160MW-135MW      160MW            135MW            43.324     0.011764706 0          0          0          0         
161-162          161              162              63.441     0.011764706 0          0          0          0         
162-163          162              163              72.439     0.011764706 0          0          0          0         
163-164          163              164              66.813     0.011764706 0          0          0          0         
164-165          164              165              66.872     0.011764706 0          0.11       0          0         
165-166          165              166              68.356     0.011764706 0          0          0          0         
166-167          166              167_SBW          68.114     0.011764706 0          0.22       0          0         
167-48           167_SBW          48c_SBW          41.050     0.011764706 0          0.07       0          0         
17a-17b          17a              17b              44.220     0.011764706 0          0.05       0          0         
17c-17d          17c              17d              33.847     0.011764706 0          0          0          0         
17d-17e          17d              17e              33.824     0.011764706 0          0          0          0         
17e-17f          17e              17f              35.332     0.011764706 0          0          0          0         
17f-17g          17f              17g              35.792     0.011764706 0          0          0          0         
17g-17a          17g              17a              14.272     0.011764706 0          0.08       0          0         
206-206a         206              206a             19.750     0.011764706 0          0          0          0         
206b-50          206b             50_SBW           38.931     0.011764706 0          0          0          0         
207-207c         207              207c             41.198     0.011764706 0          0          0          0         
207a-208         207a             208              43.252     0.011764706 0          0          0          0         
207b-207a        207b             207a             31.345     0.011764706 0          0          0          0         
207c-207b        207c             207b             11.185     0.011764706 0          0          0          0         
207e-207         207e             207              28.606     0.011764706 0          0          0          0         
208-209          208              209              45.024     0.011764706 0          0          0          0         
210-211          210              211              48.928     0.011764706 0          0          0          0         
211-206          211              206              49.270     0.011764706 0          0          0          0         
26.3-L268        26_SBW           26a              57.948     0.011764706 0          0          0          0         
26.4-L272        26_SBW           33b              62.542     0.011764706 0          0.05       0          0         
28-28a           28               28a              10.764     0.011764706 0          0          0          0         
284a-L433        284a             284              29.342     0.011764706 0          0          0          0         
285-L279         285              286              52.339     0.011764706 0          0          0          0         
287-28           287              28               12.851     0.011764706 0          0          0          0         
36a-40           36a              40               9.115      0.011764706 0          0.38       0          0         
376-377b         376              377b             8.873      0.011764706 0          0          0          0         
376a-376         376a             376              25.430     0.011764706 0          0          0          0         
377-378          377              378              27.970     0.011764706 0          0          0          0         
377a-377b        377a             377b             46.679     0.011764706 0          0          0          0         
377b-377c        377b             377C             11.816     0.011764706 0          0          0          0         
377c-377         377C             377              11.677     0.011764706 0          0          0          0         
381-382          381              382              51.428     0.011764706 0          0          0          0         
381a-381b        381a             381b             52.770     0.011764706 0          0          0          0         
381b-381         381b             381              49.590     0.011764706 0          0          0          0         
382-382a         382              382a             51.384     0.011764706 0          0          0          0         
382a-382b        382a             382b             50.184     0.011764706 0          0          0          0         
382b-384         382b             384              4.769      0.011764706 0          0          0          0         
385-386          385              386              42.202     0.011764706 0          0.02       0          0         
386-387          386              387              16.487     0.011764706 0          0          0          0         
387-388          387              388              53.670     0.011764706 0          0          0          0         
388-389          388              389              49.163     0.011764706 0          0          0          0         
38a-39           38a              39               45.096     0.011764706 0          0          0          0         
38-L77           38               38a              44.655     0.011764706 0          0          0          0         
39-39a           39               39a              37.235     0.011764706 0          0          0          0         
39a-40           39a              40               39.270     0.011764706 0          0.38       0          0         
40b-40d          40b              40d              69.182     0.011764706 0          0          0          0         
40d-41           40d              41               8.540      0.011764706 0          0          0          0         
40dRW-40e        40dRW            40e              7.909      0.011764706 0          0          0          0         
40e-40f          40e              40f              18.362     0.011764706 0          0          0          0         
40i-447d         447c             447d             15.786     0.011764706 0          0          0          0         
40-RA40a.1       40               RA_40a_SBW       43.792     0.011764706 0          0.45       0          0         
41-41a           41               41a              23.139     0.011764706 0          0          0          0         
41-42            41b              42               49.321     0.011764706 0          0          0          0         
41a-41b          41a              41b              44.709     0.011764706 0          0          0          0         
42-42a           42               42a              31.131     0.011764706 0          0          0          0         
42a-47           42a              47               39.150     0.011764706 0          0          0          0         
446a-446b        446a             446b             28.954     0.011764706 0          0          0          0         
447-448          447              448              72.418     0.011764706 0          0          0          0         
447d-447         447d             447              4.735      0.011764706 0          0          0          0         
448-448d         448              448d             37.141     0.011764706 0          0          0          0         
448a-448b        448a             448b             43.050     0.011764706 0          0          0          0         
448d-448a        448e             448a             22.575     0.011764706 0          0          0          0         
449a-L116        449a             449b             44.781     0.011764706 0          0          0          0         
449c-449d        449c             449j             53.342     0.011764706 0          0          0          0         
449d-449e        449j             449e             5.358      0.011764706 0          0          0          0         
449e-449         449e             449              46.022     0.011764706 0          0.05       0          0         
450b-E245        450b             450              39.040     0.011764706 0          0          0          0         
451b-451c        451b             451c             30.961     0.011764706 0          0          0          0         
451d-451e        451d_            451e             8.906      0.011764706 0          0          0          0         
45a-47           45a              47               37.088     0.011764706 0          0          0          0         
47-47a           47               47a              75.763     0.011764706 0          0          0          0         
47a-48.1         47a              48c_SBW          71.958     0.011764706 0          0.26       0          0         
48.3-L12         48c_SBW          48a_SBW          9.549      0.011764706 0          0.015      0          0         
48a-58_SBW       48a_SBW          58_Spezialsch._  37.899     0.011764706 0          0.05       0          0         
50-50.2          50_SBW           167_SBW          17.138     0.011764706 0          0          0          0         
524_SW-L433      524_SW           525_SW           32.881     0.011764706 0          0          0          0         
531_SW-532_SW    531_SW           532_SW           54.651     0.011764706 0          0          0          0         
532_SW-533_SW    532_SW           533_SW           54.731     0.011764706 0          0          0          0         
533_SW-534_SW    533_SW           534_SW           55.322     0.011764706 0          0          0          0         
5494-597a        596              597_SBW          142.355    0.011764706 0          0.02       0          0         
555-556          555              556              68.918     0.011764706 0          0.06       0          0         
55-577           55               577_SBW          87.868     0.011764706 0          0.07       0          0         
556-557          556              557              54.909     0.011764706 0          0.01       0          0         
557-558          557              558              44.944     0.011764706 0          0.05       0          0         
558-55           558              55               62.747     0.011764706 0          0.13       0          0         
565-566          565              566              51.150     0.011764706 0          0          0          0         
566-567          566              567              51.220     0.011764706 0          0          0          0         
567-L269         567              27               39.034     0.011764706 0          0          0          0         
56a-571          56a              571              69.902     0.011764706 0          0.07       0          0         
571-572          571              572              8.058      0.011764706 0          0.05       0          0         
572-573          572              573              46.806     0.011764706 0          0.03       0          0         
573-574          573              574              17.120     0.011764706 0          0.06       0          0         
574-575          574              575              13.844     0.011764706 0          0.05       0          0         
575-578          575              578              5.889      0.011764706 0          0.03       0          0         
57-581           57_SBW           581_SBW          47.156     0.011764706 0          0.11       0          0         
576-578          576              578              5.556      0.011764706 0          0.21       0          0         
576a-576         576a             576              66.123     0.011764706 0          0.04       0          0         
577-57           577_SBW          57_SBW           69.294     0.011764706 0          0.11       0          0         
578-579a         578              579a             47.829     0.011764706 0          0.04       0          0         
579-581a         579              581_SBW          38.896     0.011764706 0          1.09       0          0         
579a-579b        579a             579b             97.598     0.011764706 0          0.04       0          0         
579b-579c        579b             579c             100.822    0.011764706 0          0.03       0          0         
579c-579d        579c             579d             15.855     0.011764706 0          0.03       0          0         
579d-579         579d             579              19.748     0.011764706 0          0.04       0          0         
58_SBW-591a      58_Spezialsch._  591a             17.275     0.011764706 0          0          0          150       
581.2-582.1      581_SBW          582_SBW          70.404     0.011764706 0          0.06       0          0         
582.2-583.1      582_SBW          583_SBW          50.996     0.011764706 0          0          0          0         
583.2-584.1      583_SBW          584_SBW          71.956     0.011764706 0          0.25       0          0         
584.2-585.1      584_SBW          585_SBW          81.566     0.011764706 0          0.01       0          0         
585.2-591i       585_SBW          58_Spezialsch._  77.991     0.011764706 0          0.06       0          0         
591-592          591              592              55.287     0.011764706 0          0.269      0          0         
591a-591         591a             591              54.763     0.011764706 0          0.147      0          0         
591c-591b        591bSW_          591cSW           46.908     0.011764706 0          0          0          0         
591c-591d        591cSW           591dSW           45.386     0.011764706 0          0          0          0         
591d-591e        591dSW           591e             15.064     0.011764706 0          0          0          0         
591e-591f        591e             591f             41.549     0.011764706 0          0          0          0         
591f-591g        591f             591g             63.105     0.011764706 0          0          0          0         
591h-591j        591h             591i             32.901     0.011764706 0          0          0          0         
591i-591j        591i             591j             13.906     0.011764706 0          0          0          0         
591j-591a        591j             591a             6.569      0.011764706 0          0.683      0          0         
591q-E98         591q             591              5.440      0.011764706 0          0          0          0         
591r-591f        591r             591e             18.622     0.011764706 0          0          0          0         
592-596a         592              596a             23.446     0.011764706 0          0.22       0          0         
593-594          593              594              67.392     0.011764706 0          0          0          0         
594-597a         594              597a             32.985     0.011764706 0          0          0          0         
596.3-596a       596__Spez.sch.   596a             12.716     0.011764706 0          0.22       0          0         
596a-593         596a             593              39.933     0.011764706 0          0          0          0         
597a-595         597a             RK59_MW          29.753     0.011764706 0          0          0          0         
597b-597c        597b             597c             52.103     0.011764706 0          0          0          0         
597c-597d        597c             597d             14.855     0.011764706 0          0          0          0         
597d-597e        597d             597e             85.112     0.011764706 0          0          0          0         
597e-597f        597e             597f             71.023     0.011764706 0          0          0          0         
597f-597g        597f             597g             23.904     0.011764706 0          0          0          0         
597g-597h        597g             597h             44.926     0.011764706 0          0          0          0         
597j-597k        597j             597k             48.903     0.011764706 0          0          0          0         
597k-597g        597k             597g             21.071     0.011764706 0          0          0          0         
597m-597n        597m             597n             42.996     0.011764706 0          0          0          0         
597n-597e        597n             597e             27.346     0.011764706 0          0          0          0         
5h-L193          5h               5fSWRW           59.777     0.011764706 0          0.09       0          0         
6_SBW-6a         6_SBW            6a               54.949     0.011764706 0          0          0          0         
604a-604b        604a             604b             39.758     0.011764706 0          0          0          0         
604b-L237        604b             604c             39.782     0.011764706 0          0          0          0         
6a-6b            6a               6b               46.360     0.011764706 0          0          0          0         
6b-L242          6b               7                8.875      0.011764706 0          0          0          0         
801.2-802        801_SBW          802              89.030     0.011764706 0          0          0          0         
801a-801b        P366             801b             59.216     0.011764706 0          0          0          0         
801b-801c        801b             801c             61.339     0.011764706 0          0          0          0         
801c-801d        801c             801d             38.749     0.011764706 0          0.03       0          0         
801d-801.1       801d             801_SBW          54.047     0.011764706 0          0.11       0          0         
801e-801f        801e             801f             30.998     0.011764706 0          0          0          0         
801f-801c        801f             801c             87.211     0.011764706 0          0          0          0         
801i-801d        801i             801d             38.943     0.011764706 0          0          0          0         
802-803.2        802              803_SBW_1        85.549     0.011764706 0          0          0          0         
803-804          803_SBW_1        804              48.439     0.011764706 0          0          0          0         
803a-803.1       803a             803_SBW_1        74.325     0.011764706 0          0.32       0          0         
804-805.2        804              805_SBW          84.826     0.011764706 0          0          0          0         
805-80.1         805_SBW          RÜB+PW80_Industrie 89.789     0.011764706 0          2.14       0          0         
805a-805b        805a             805b             59.395     0.011764706 0          0          0          0         
805b-805c        805b             805c             59.075     0.011764706 0          0          0          0         
805c-805d        805c             805d             55.385     0.011764706 0          0          0          0         
805d-805e        805d             805e             63.944     0.011764706 0          0          0          0         
805e-805f        805e             805f             47.160     0.011764706 0          0          0          0         
805g-805.1       805g             805_SBW          75.671     0.011764706 0          0          0          0         
805h-805b        805h             805i             64.337     0.011764706 0          0          0          0         
805i-805b        805i             805b             17.696     0.011764706 0          0          0          0         
809-597_SBW      597h             597.2_SBW        71.556     0.011764706 0          0.02       0          0         
897i-597j        597i             597j             50.685     0.011764706 0          0          0          0         
948-L203         606alt           5g_SBW           14.114     0.011764706 0          0.01       0          0         
GU22-157a        23               157a_SBW         52.537     0.011764706 0          0.04       0          0         
GU25-11f         11e              11f              70.985     0.011764706 0          0          0          0         
GU31-L115        150e             449a             6.147      0.011764706 0          0          0          0         
HAL1             451              452              22.846     0.011764706 0          0          0          0         
HAL105           28c              28d              27.136     0.011764706 0          0          0          0         
HAL1064          206a             206b             21.006     0.011764706 0          0          0          0         
HAL1091          805j             805k             55.109     0.011764706 0          0          0          0         
HAL114           451f             451c             9.456      0.011764706 0          0          0          0         
HAL115           451e             451f             15.106     0.011764706 0          0.05       0          0         
HAL117           Kanalanfang      451d_            56.908     0.011764706 0          0          0          0         
HAL119           1169             R40              5.721      0.011764706 0          0          0          0         
HAL119(53797)    R40              RA40a            43.789     0.011764706 0          0          0          0         
HAL120           1185             1169             86.220     0.011764706 0          0          0          0         
HAL1294          209              210              51.325     0.011764706 0          0          0          0         
HAL1524          446              447d             57.239     0.011764706 0          0          0          0         
HAL157           RÜB_128          138a_Mess-Sch.   20.448     0.011764706 0          0          0          105       
HAL159           448d             45               26.368     0.011764706 0          0.03       0          0         
HAL16            446e             446              62.145     0.011764706 0          0.01       0          0         
HAL1600          RA40a            40dRW            9.239      0.011764706 0          0          0          0         
HAL1666          805k             805f             53.557     0.011764706 0          0          0          0         
HAL1688          805f             805g             60.590     0.011764706 0          0          0          0         
HAL1710          801h             801i             46.793     0.011764706 0          0          0          0         
HAL1747          598              RK59_Deckel01    20.471     0.011764706 0          0.37       0          0         
HAL1748          597_SBW          598              22.276     0.011764706 0          0          0          0         
HAL18            450              451              83.433     0.011764706 0          0          0          0         
HAL1813          124a             125_SBW          8.740      0.011764706 0          0.73       0          0         
HAL19            452              Bacheinlauf2     41.456     0.011764706 0          0          0          0         
HAL2             451c             451              67.916     0.011764706 0          0          0          0         
HAL21            40i              Bacheinlauf1     24.399     0.011764706 0          0          0          0         
HAL219           28d              38b              25.883     0.011764706 0          0.01       0          0         
HAL22            40h              40i              59.977     0.011764706 0          0          0          0         
HAL220           38b              38               10.202     0.011764706 0          0.03       0          0         
HAL221           28b              28c              42.274     0.011764706 0          0          0          0         
HAL222           28a              28b              28.376     0.011764706 0          0          0          0         
HAL23            40f              40g              28.473     0.011764706 0          0          0          0         
HAL24            40g              40h              30.917     0.011764706 0          0          0          0         
HAL25            447a             447b             41.152     0.011764706 0          0          0          0         
HAL251           379              37               28.944     0.011764706 0          0          0          0         
HAL26            447b             447c             59.815     0.011764706 0          0          0          0         
HAL274           1188             1185             85.023     0.011764706 0          0          0          0         
HAL30            449              450              29.438     0.011764706 0          0          0          0         
HAL31            446c             446              4.736      0.011764706 0          0.05       0          0         
HAL32            446b             446c             69.955     0.011764706 0          0          0          0         
HAL3294          526_SW           508_SW           30.643     0.011764706 0          0.08       0          0         
HAL33            451a             451b             19.711     0.011764706 0          0.87       0          0         
HAL34            37a              37               73.584     0.011764706 0          0          0          0         
HAL35            37               38               73.392     0.011764706 0          0.73       0          0         
HAL41            446d             446b             9.978      0.011764706 0          0          0          0         
HAL4360          378              379              38.777     0.011764706 0          0          0          0         
HAL4750          159a             159MW            34.872     0.011764706 0          0.12       0          0         
HAL52            448b             448c             45.084     0.011764706 0          0          0          0         
HAL54            448c             448d             10.292     0.011764706 0          0          0          0         
HAL609           597l             597m             52.915     0.011764706 0          0          0          0         
HAL68            449g             449              39.192     0.011764706 0          0          0          0         
HAL70            449f             449g             34.456     0.011764706 0          0          0          0         
HAL72            SS8              451b             12.361     0.011764706 0          0.87       0          0         
HAL737           596b             596c             22.421     0.011764706 0          0          0          0         
HAL749           596c             596d             26.379     0.011764706 0          0          0          0         
HAL75            45               45a              63.186     0.011764706 0          0          0          0         
HAL750           596d             596e             50.368     0.011764706 0          0          0          0         
HAL751           596e             596__Spez.sch.   7.867      0.011764706 0          0          0          0         
HAL775           58_SBW           596              143.119    0.011764706 0          0          0          0         
HAL788           591m             591n             55.129     0.011764706 0          0          0          0         
HAL789           591n             591o             45.184     0.011764706 0          0          0          0         
HAL790           591o             591p             51.176     0.011764706 0          0          0          0         
HAL791           591p             591q             39.742     0.011764706 0          0          0          0         
HAL878           591g             591h             62.836     0.011764706 0          0          0          0         
Kanalanfang2-1188 Kanalanfang2     1188             65.769     0.011764706 0          0          0          0         
L114-L107        127b__SBE_SW     127c_SW          71.936     0.011764706 0          0          0          0         
L116-449c        449b             449c             49.501     0.011764706 0          0          0          0         
L119-160MW       159MW            160MW            35.770     0.011764706 0          0          0          0         
L120-L126        22a              23               64.217     0.011764706 0          0.08       0          0         
L128-L22a        VS_22            22a              55.691     0.011764706 0          0          0          0         
L129-150c        156b             150e             14.364     0.011764706 0          0          0          0         
L130-L88         156a             157_SBW          14.629     0.011764706 0          0.13       0          0         
L134-L130        156SW            156a             6.448      0.011764706 0          0.01       0          0         
L136-L131        155SW            156SW            59.944     0.011764706 0          0          0          0         
L138.4-L48       138_SBW          161              72.460     0.011764706 0          0          0          0         
L140-L137        154_SBW          155SW            51.185     0.011764706 0          0.03       0          0         
L143-L141        153              154_SBW          48.144     0.011764706 0          0.03       0          0         
L144-L145        150a             150c             2.661      0.011764706 0          0          0          0         
L145-L143        150c             153              21.001     0.011764706 0          0          0          0         
L146-L144        150              150a             61.202     0.011764706 0          0          0          0         
L150-106         105              106              57.047     0.011764706 0          0.05       0          0         
L157-L110        127a_SBW         127b__SBE_SW     49.870     0.011764706 0          0          0          0         
L162-103d        103c             103d_SBW         60.609     0.011764706 0          0          0          0         
L164-L163        115              115a             13.279     0.011764706 0          0.02       0          0         
L166-103b        103a             103b             43.648     0.011764706 0          0          0          0         
L168-L164        114              115              21.310     0.011764706 0          0          0          0         
L169-L168        113              114              39.677     0.011764706 0          0.05       0          0         
L176-L169        112              113              39.262     0.011764706 0          0          0          0         
L180-L217        Node_12          101              53.908     0.011764706 0          0          0          0         
L181-L210        607_SBW          6_SBW            33.878     0.011764706 0          0          0          0         
L182-L215        606              Node_12          22.789     0.011764706 0          0.13       0          0         
L185-102c        102b             102c             27.845     0.011764706 0          0          0          0         
L186-L183        102a             102b             59.156     0.011764706 0          1.18       0          0         
L187-L165        SK102_SBW        102i             92.459     0.011764706 0          0          0          0         
L189-L166        SK102.2          103a             92.148     0.011764706 0          0          0          0         
L191-L198        5fSWRW           5g_SBW           46.730     0.011764706 0          0          0          0         
L199-L206        5g_SBW           607_SBW          11.616     0.011764706 0          0          0          0         
L217-L186        101              102a             65.878     0.011764706 0          0          0          0         
L221-L182        605              606              29.110     0.011764706 0          0          0          0         
L222-L205        605alt           606alt           37.761     0.011764706 0          0          0          0         
L224-L225        102d             102e             35.596     0.011764706 0          0          0          0         
L225-102f        102e             102f             62.645     0.011764706 0          0          0          0         
L226-L184        102g             102b             31.775     0.011764706 0          0.21       0          0         
L229-L230        104b             104c             31.736     0.011764706 0          0          0          0         
L230-L231        104c             104d             16.972     0.011764706 0          0.02       0          0         
L231-L151        104d             105              51.919     0.011764706 0          0.1        0          0         
L232-L221        604              605              48.858     0.011764706 0          0          0          0         
L235-605alt      604_SBW          605alt           50.950     0.011764706 0          0          0          0         
L237-L230        604c             604              8.316      0.011764706 0          0.24       0          0         
L242-L243        7                7a               54.687     0.011764706 0          0          0          0         
L243-L244        7a               8                54.668     0.011764706 0          0          0          0         
L244-L245        8                8a               55.640     0.011764706 0          0          0          0         
L245-9           8a               9                57.654     0.011764706 0          0          0          0         
L246-L247        L43              VS_22            103.144    0.011764706 0          0.96       0          0         
L248-L246        389              L43              12.139     0.011764706 0          0.23       0          0         
L250-L458        15a              9                53.744     0.011764706 0          0          0          0         
L252-801f        801g             801f             38.889     0.011764706 0          0          0          0         
L261-26.2        534_SW           26_SBW           59.027     0.011764706 0          0.05       0          0         
L268-L269        26a              27               51.165     0.011764706 0          0          0          0         
L269-L270        27               27a              43.148     0.011764706 0          0          0          0         
L270-L271        27a              27b              39.183     0.011764706 0          0          0          0         
L271-28          27b              28               43.553     0.011764706 0          0          0          0         
L272-L273        33b              33a              61.422     0.011764706 0          0          0          0         
L273-571         33a              571              9.420      0.011764706 0          0.14       0          0         
L274-L275        33               34               49.142     0.011764706 0          0          0          0         
L275-L276        34               35b              43.026     0.011764706 0          0          0          0         
L276-L277        35b              35a              36.334     0.011764706 0          0          0          0         
L277-L278        35a              36               50.383     0.011764706 0          0          0          0         
L278-36a_1       36               36a              50.579     0.011764706 0          1.01       0          0         
L279-287         286              287              51.305     0.011764706 0          0          0          0         
L376-L426        526a_SW          526_SW           20.629     0.011764706 0          0.01       0          0         
L409-L411        523_SW           52_SW            49.812     0.011764706 0          0          0          0         
L411-L413        52_SW            531_SW           47.168     0.011764706 0          0          0          0         
L416-L409        522_SW           523_SW           54.461     0.011764706 0          0          0          0         
L418-L423        508_SW           509_SW           40.844     0.011764706 0          0.02       0          0         
L422-L411        510_SW           52_SW            30.875     0.011764706 0          0          0          0         
L423-L422        509_SW           510_SW           56.863     0.011764706 0          0          0          0         
L433-L429        525_SW           526a_SW          46.937     0.011764706 0          0          0          0         
L433-L434        284              284b             12.531     0.011764706 0          0          0          0         
L434-285         284b             285              52.652     0.011764706 0          0          0          0         
L435-L436        372              373              34.940     0.011764706 0          0          0          0         
L436-L441        373              374              39.639     0.011764706 0          0          0          0         
L437-L438        384              385              38.382     0.011764706 0          0          0          0         
L440-386         375              386              15.330     0.011764706 0          0.08       0          0         
L441-L440        374              375              40.902     0.011764706 0          0          0          0         
L444-L445        17b              17               53.056     0.011764706 0          0          0          0         
L445-L446        17               18               64.883     0.011764706 0          0          0          0         
L446-L447        18               19               65.158     0.011764706 0          0          0          0         
L447-L448        19               14b              9.253      0.011764706 0          0          0          0         
L448-L459        14b              15               54.723     0.011764706 0          0          0          0         
L452-L453        146              147              50.728     0.011764706 0          0          0          0         
L453-L454        147              147a             11.770     0.011764706 0          0          0          0         
L454-L480        147a             149              38.652     0.011764706 0          0          0          0         
L458-L246        9                L45              16.627     0.011764706 0          0          0          0         
L458-L246(40216) L45              L43              5.916      0.011764706 0          0.14       0          0         
L459-L250        15               15a              57.125     0.011764706 0          0          0          0         
L462-L463        11h              12               27.254     0.011764706 0          0          0          0         
L464-L465        12a              13               47.522     0.011764706 0          0          0          0         
L465-L469        13               600_SBW          29.870     0.011764706 0          0.12       0          0         
L466-L467        13a              14               58.229     0.011764706 0          0          0          0         
L467-L468        14               14a              58.278     0.011764706 0          0          0          0         
L468-L448        14a              14b              61.574     0.011764706 0          0          0          0         
L470-L472        600_SBW          603              42.251     0.011764706 0.5        0          0          0         
L471-L466        600_SBW          13a              23.119     0.011764706 0          0          0          0         
L472-L473        603              603A_SBW         44.107     0.011764706 0          0.08       0          0         
L475-L260        603A_SBW         604              19.798     0.011764706 0          0.07       0          0         
L477-L234        603alt_SBW       604_SBW          57.323     0.011764706 0          0          0          0         
L479-L480        148              149              54.340     0.011764706 0          0          0          0         
L480-L467        149              14               74.083     0.011764706 0          0          0          0         
L482-L483        13b              13c              21.142     0.011764706 0          0          0          0         
L483-L484        13c              13d              23.106     0.011764706 0          0          0          0         
L484-L485        13d              13e              5.079      0.011764706 0          0          0          0         
L485-L465        13e              13               55.121     0.011764706 0          0          0          0         
L489-L474        602              603A_SBW         24.698     0.011764706 0          0.23       0          0         
L490-L489        601              602              51.294     0.011764706 0          0          0          0         
L491-L490        609              601              35.179     0.011764706 0          0          0          0         
L492-L491        608              609              47.589     0.011764706 0          0          0          0         
L499-102k        K1               102k             35.873     0.011764706 0          0          0          0         
L49-Bacheinlauf47 161a             Bacheinlauf47    16.992     0.011764706 0          0          0          0         
L5-127gSW        P1005            127gSW           47.306     0.011764706 0          0          0          0         
L78-L60          597.2_SBW        597a             9.696      0.011764706 0          0          0          0         
L80-Bacheinlauf30 Node_5           Bacheinlauf30    24.156     0.011764706 0          0          0          0         
L94-E328         127              128a_Blindsch.   61.227     0.011764706 0          0          0          0         
Link_1           RK59_MW          Node_1           24.263     0.011764706 0          0          0          0         
Link_3           RK59_Deckel01    Node_3           14.514     0.011764706 0          0          0          0         
Link_2           Node_1           ARA_Fehraltorf   18.455     0.011764706 0          0          0          180       
Link_4           Node_3           FB_ARA           40.742     0.011764706 0          0          0          0         
Link_5           Node_7           Node_8           5.914      0.011764706 0          0          0          0         
Notentl.-Bach37  48b_SBW          Notentlastung_48b 18.209     0.011764706 0          0          0          0         
P1053-E1119      P1053            1102             5.908      0.011764706 0          0          0          0         
RA158-159a       RA158            159a             32.429     0.011764706 0          0          0          0         
RA40a.5-40b      RA_40a_SBW       40b              57.190     0.011764706 0          0          0          0         
SK_102_ST        102i             SK_102_Steuerschacht 22.362     0.011764706 0          0.3        0          0         
SK_102_ST-115a   SK_102_Steuerschacht 115a             19.935     0.011764706 0          0.16       0          84        
VS_22-37a        VS_22            37a              56.487     0.011764706 0.82       0          0          0         
B124-B123        B124             B123             36         0.01       0          0          0          0         
B123-B122        B123             B122             29         0.01       0          0          0          0         
B121-B122        B121             B122             69         0.01       0          0          0          0         
B121-B105        B121             B105             12         0.01       0          0          0          0         
B106-B105        B106             B105             30         0.01       0          0          0          0         
B107-B106        B107             B106             72         0.01       0          0          0          0         
B105-B104        B105             B104             65         0.01       0          0          0          0         
B104-B103        B104             B103             61         0.01       0          0          0          0         
203              B191             B103             46         0.01       0          0          0          0         
B103-B102        B103             B102             63         0.01       0          0          0          0         
B102-B101        B102             B101             18         0.01       0          0          0          0         
B101-B53         B101             B53              50         0.01       0          0          0          0         
B63-B62          B63              B62              61         0.01       0          0          0          0         
B62-B61          B62              B61              16         0.01       0          0          0          0         
B61-B60          B61              B60              41         0.01       0          0          0          0         
B60-B59          B60              B59              26         0.01       0          0          0          0         
B59-B58          B59              B58              32         0.01       0          0          0          0         
B58-B57          B58              B57              37         0.01       0          0          0          0         
B57-B56          B57              B56              61         0.01       0          0          0          0         
B56-B55          B56              B55              31         0.01       0          0          0          0         
B55-B54          B55              B54              17         0.01       0          0          0          0         
B54-B53          B54              B53              9          0.01       0          0          0          0         
B53-B52          B53              B52              43         0.01       0          0          0          0         
B52-B51          B52              B51              33         0.01       0          0          0          0         
B51-B3           B51              B3               29         0.01       0          0          0          0         
B111-B57         B111             B57              52         0.01       0          0          0          0         
B74-B73          B74              B73              58         0.01       0          0          0          0         
B73-B72          B73              B72              37         0.01       0          0          0          0         
B72-B71          B72              B71              51         0.01       0          0          0          0         
B71-B61          B71              B61              18         0.01       0          0          0          0         
B86-B85          B86              B85              35         0.01       0          0          0          0         
B85-B84          B85              B84              33         0.01       0          0          0          0         
B84-B83          B84              B83              31         0.01       0          0          0          0         
B83-B82          B83              B82              29         0.01       0          0          0          0         
B82-B81          B82              B81              62         0.01       0          0          0          0         
B81-B58          B81              B58              10         0.01       0          0          0          0         
B95-B94          B95              B94              29         0.01       0          0          0          0         
B94-B93          B94              B93              37         0.01       0          0          0          0         
B93-B92          B93              B92              11         0.01       0          0          0          0         
B92-B91          B92              B91              35         0.01       0          0          0          0         
B91-B82          B91              B82              51         0.01       0          0          0          0         
B13-B12          B13              B12              36         0.01       0          0          0          0         
B12-B11          B12              B11              42         0.01       0          0          0          0         
B11-B10          B11              B10              35         0.01       0          0          0          0         
B9-B10           B10              B9               40         0.01       0          0          0          0         
B9-B8.1          B9               B8.1             9          0.01       0          0          0          0         
B22-B21          B22              B21              57         0.01       0          0          0          0         
B21-B6           B21              B6               42         0.01       0          0          0          0         
B31-B8           B31              B8               28         0.01       0          0          0          0         
B43-B42          B43              B42              31         0.01       0          0          0          0         
B42-B40          B42              B41              26         0.01       0          0          0          0         
B41-B8.1         B41              B8.1             42         0.01       0          0          0          0         
B8.1-B8          B8.1             B8               17         0.01       0          0          0          0         
B8-B7            B8               B7               44         0.01       0          0          0          0         
B7-B6            B7               B6               49         0.01       0          0          0          0         
B6-B5            B6               B5               57         0.01       0          0          0          0         
B5-B4            B5               B4               53         0.01       0          0          0          0         
B4-B3            B4               B3               7          0.01       0          0          0          0         
B3-B2            B3               B2               33         0.01       0          0          0          0         
B2-RÜB_Kronentobel B2               RÜB_Kronentobel  25         0.01       0          0          0          0         
B181-B171        B181             B171             31         0.01       0          0          0          0         
B173-B172        B173             B172             31         0.01       0          0          0          0         
B172-B171        B172             B171             48         0.01       0          0          0          0         
B171-B137        B171             B137             42         0.01       0          0          0          0         
B161-B136        B161             B136             14         0.01       0          0          0          0         
B153-B152        B153             B152             27         0.01       0          0          0          0         
B152-B151        B152             B151             50         0.01       0          0          0          0         
B15-B152B133     B151             B133             3          0.01       0          0          0          0         
B205-B204        B205             B204             23         0.01       0          0          0          0         
B204-B203        B204             B203             30         0.01       0          0          0          0         
B203-B202        B203             B202             18         0.01       0          0          0          0         
B202-B201        B202             B201             31         0.01       0          0          0          0         
B201-B131        B201             B131             4          0.01       0          0          0          0         
B143-B142        B143             B142             37         0.01       0          0          0          0         
B142-B141        B142             B141             41         0.01       0          0          0          0         
B141-B140        B141             B140             12         0.01       0          0          0          0         
B140-B139        B140             B139             43         0.01       0          0          0          0         
B139-B138        B139             B138             43         0.01       0          0          0          0         
B138-B137        B138             B137             4          0.01       0          0          0          0         
B137-B136        B137             B136             27         0.01       0          0          0          0         
B136-B135        B136             B135             35         0.01       0          0          0          0         
B135-134         B135             B134             35         0.01       0          0          0          0         
B134-B133        B134             B133             48         0.01       0          0          0          0         
B133-B132        B133             B132             42         0.01       0          0          0          0         
B132-B131        B132             B131             33         0.01       0          0          0          0         
B131-B2          B131             B2               56         0.01       0          0          0          0         
B139R-B138R      B139R            B138R            4          0.01       0          0          0          0         
B138R-B136R      B138R            B136R            40         0.01       0          0          0          0         
B136R-B135R      B136R            B135R            40         0.01       0          0          0          0         
B135R-B134R      B135R            B134R            54         0.01       0          0          0          0         
B134R-B1343      B134R            B133R            31         0.01       0          0          0          0         
B133R-B214R      B133R            B214R            83         0.01       0          0          0          0         
B215R-B214R      B215R            B214R            87         0.01       0          0          0          0         
B214R-B213R      B214R            B213R            69         0.01       0          0          0          0         
B213R-B212R      B213R            B212R            70         0.01       0          0          0          0         
B212R-Outfall_Chronentobelbach B212R            Outfall_Chronentobelbach 75         0.01       0          0          0          0         
C54-C53          C54              C53              25         0.01       0          0          0          0         
C53-C52          C53              C52              25         0.01       0          0          0          0         
C61-C4           C61              C4               58         0.01       0          0          0          0         
C72-C71          C72              C71              29         0.01       0          0          0          0         
C71-C37          C71              C37              59         0.01       0          0          0          0         
C52-C51          C52              C51              12         0.01       0          0          0          0         
C51-C6           C51              C6               21         0.01       0          0          0          0         
C44-C43          C44              C43              32         0.01       0          0          0          0         
C43-C42          C43              CC42             18         0.01       0          0          0          0         
C42-C41          CC42             C41              15         0.01       0          0          0          0         
C41-C40          C41              C40              25         0.01       0          0          0          0         
C40-39           C40              C39              47         0.01       0          0          0          0         
C39-C38          C39              C38              43         0.01       0          0          0          0         
C38-C37          C38              C37              19         0.01       0          0          0          0         
C37-C36          C37              C36              36         0.01       0          0          0          0         
C36-C35          C36              C35              37         0.01       0          0          0          0         
C35-C34          C35              C34              49         0.01       0          0          0          0         
C34-C33          C34              C33              38         0.01       0          0          0          0         
C33-C32          C33              C32              16         0.01       0          0          0          0         
C32-C31          C32              C31              47         0.01       0          0          0          0         
C31-C2           C31              C2               7          0.01       0          0          0          0         
RÜB_Kronentobel-C11 RÜB_Kronentobel  C11              60         0.01       0          0          0          0         
C11-C10          C11              C10              52         0.01       0          0          0          0         
C10-C9           C10              C9               22         0.01       0          0          0          0         
C9-C8            C9               C8               50         0.01       0          0          0          0         
C8-C7            C8               C7               24         0.01       0          0          0          0         
C7-C6            C7               C6               24         0.01       0          0          0          0         
C6-C5            C6               C5               19         0.01       0          0          0          0         
C5-C4            C5               C4               23         0.01       0          0          0          0         
C4-C3            C4               C3               47         0.01       0          0          0          0         
C3-C2            C3               C2               26         0.01       0          0          0          0         
C2-RÜB_Berggasse C2               RÜB_Berggasse    26         0.01       0          0          0          0         
C25R-C24R        C25R             C24R             40         0.01       0          0          0          0         
C24R-C23R        C24R             C23R             41         0.01       0          0          0          0         
C23R-C22R        C23R             C22R             34         0.01       0          0          0          0         
C22R-C61         C22R             C61              35         0.01       0          0          0          0         
C55R-C54R        C55R             C54R             28         0.01       0          0          0          0         
C54R-C53R        C54R             C53R             39         0.01       0          0          0          0         
C53R-C52R        C53R             C52R             39         0.01       0          0          0          0         
C52R-C51R        C52R             C51R             3          0.01       0          0          0          0         
C51R-C38R        C51R             C38R             8          0.01       0          0          0          0         
C41R-C40R        C41R             C40R             22         0.01       0          0          0          0         
C40R-C39R        C40R             C39R             38         0.01       0          0          0          0         
C39R-C38R        C39R             C38R             61         0.01       0          0          0          0         
C38R-C37R        C38R             C37R             63         0.01       0          0          0          0         
C37R-C36R        C37R             C36R             49         0.01       0          0          0          0         
C36R-C35R        C36R             C35R             4          0.01       0          0          0          0         
C35R-C34R        C35R             C34R             23         0.01       0          0          0          0         
C34R-C33R        C34R             C33R             38         0.01       0          0          0          0         
C33R-C32R        C33R             C32R             12         0.01       0          0          0          0         
C32R-C31R        C32R             C31R             6          0.01       0          0          0          0         
C31R-Outfall_R_Dorfbach C31R             Outfall_R_Dorfbach1 6          0.01       0          0          0          0         
D121-D92         D121             D92              40         0.01       0          0          0          0         
D114-113         D114             D113             32         0.01       0          0          0          0         
D113-D112        D113             D112             37         0.01       0          0          0          0         
D112-D111        D112             D111             41         0.01       0          0          0          0         
D111-D92         D111             D92              36         0.01       0          0          0          0         
D96-D95          D96              D95              41         0.01       0          0          0          0         
D101-D95         D101             D95              57         0.01       0          0          0          0         
D95-D94          D95              D94              25         0.01       0          0          0          0         
D94-D93          D94              D93              47         0.01       0          0          0          0         
D93-D92          D93              D92              9          0.01       0          0          0          0         
D92-D91          D92              D91              40         0.01       0          0          0          0         
D91-D32          D91              D32              23         0.01       0          0          0          0         
D89-D88          D89              D88              25         0.01       0          0          0          0         
D88-D87          D88              D87              50         0.01       0          0          0          0         
D87-D86          D87              D86              53         0.01       0          0          0          0         
D86-D85          D86              D85              51         0.01       0          0          0          0         
D85-D84          D85              D84              51         0.01       0          0          0          0         
D84-D83          D84              D83              46         0.01       0          0          0          0         
D83-D82          D83              D82              8          0.01       0          0          0          0         
D82-D81          D82              D81              36         0.01       0          0          0          0         
D81-D34          D81              D34              17         0.01       0          0          0          0         
D71-D63          D71              D63              33         0.01       0          0          0          0         
D66-D65          D66              D65              49         0.01       0          0          0          0         
D65-D64          D65              D64              32         0.01       0          0          0          0         
D64-D63          D64              D63              45         0.01       0          0          0          0         
D63-D62          D63              D62              21         0.01       0          0          0          0         
D62-D61          D62              D61              41         0.01       0          0          0          0         
D61-D39          D61              D39              12         0.01       0          0          0          0         
;edit_fbl
D54-D53          D54              D53              10         0.01       0          0          0          0         
D53-D52          D53              D52              61         0.01       0          0          0          0         
D52-D51          D52              D51              44         0.01       0          0          0          0         
D51-D38          D51              D38              26         0.01       0          0          0          0         
D38-D37          D38              D37              53         0.01       0          0          0          0         
D37-D36          D37              D36              36         0.01       0          0          0          0         
D36-D35          D36              D35              51         0.01       0          0          0          0         
D35-D34          D35              D34              4          0.01       0          0          0          0         
D34-D33          D34              D33              46         0.01       0          0          0          0         
D33-D32          D33              D32              48         0.01       0          0          0          0         
D32-D31          D32              D31              43         0.01       0          0          0          0         
D31-D4           D31              D4               21         0.01       0          0          0          0         
D42-D41          D42              D41              43         0.01       0          0          0          0         
D41-D40          D41              D40              53         0.01       0          0          0          0         
D40-D39          D40              D39              51         0.01       0          0          0          0         
D39-D38          D39              D38              53         0.01       0          0          0          0         
D24-D23          D24              D23              30         0.01       0          0          0          0         
D23-D22          D23              D22              38         0.01       0          0          0          0         
D22-D21          D22              D21              45         0.01       0          0          0          0         
D21-D6           D21              D6               4          0.01       0          0          0          0         
D11-D10          D11              D10              31         0.01       0          0          0          0         
D10-D9           D10              D9               33         0.01       0          0          0          0         
D9-D8            D9               D8               18         0.01       0          0          0          0         
D8-D7            D8               D7               20         0.01       0          0          0          0         
D7-D6            D7               D6               41         0.01       0          0          0          0         
D6-D5            D6               D5               37         0.01       0          0          0          0         
D5-D4            D5               D4               13         0.01       0          0          0          0         
D4-D3            D4               D3               41         0.01       0          0          0          0         
D3-D2            D3               D2               35         0.01       0          0          0          0         
D2-RÜ_Poststrasse D2               RÜ_Poststrasse   16         0.01       0          0          0          0         
D151R-D133R      D151R            D133R            53         0.01       0          0          0          0         
D137R-D136R      D137R            D136R            58         0.01       0          0          0          0         
D136R-D135R      D136R            D135R            70         0.01       0          0          0          0         
D135R-D134R      D135R            D134R            32         0.01       0          0          0          0         
D134R-D133R      D134R            D133R            7          0.01       0          0          0          0         
D133R-D132R      D133R            D132R            19         0.01       0          0          0          0         
D132R-D131R      D132R            D131R            59         0.01       0          0          0          0         
;edit_fbl
D131R-D4R        D131R            D4R1             400        0.01       0          0          0          0         
D96R-D94R        D96R             D94R             53         0.01       0          0          0          0         
D121R-D92R       D121R            D92R             37         0.01       0          0          0          0         
D114R-D113R      D114R            D113RR           31         0.01       0          0          0          0         
D113R-D112R      D113RR           D112R            37         0.01       0          0          0          0         
D112R-D111R      D112R            D111R            42         0.01       0          0          0          0         
D111R-D92R       D111R            D92R             33         0.01       0          0          0          0         
D92R-D91R        D92R             D91R             38         0.01       0          0          0          0         
D91R-D90R        D91R             D90R             11         0.01       0          0          0          0         
D90R-D30R        D90R             D32R             12         0.01       0          0          0          0         
D32R-D31R        D32R             D31R             40         0.01       0          0          0          0         
D31R-D30R        D31R             D30R             8          0.01       0          0          0          0         
D30R-D4R         D30R             D4R              22         0.01       0          0          0          0         
D101R-D95R       D101R            D95R             46         0.01       0          0          0          0         
D95R-D94R        D95R             D94R             16         0.01       0          0          0          0         
D94R-D141R       D94R             D141R            23         0.01       0          0          0          0         
D141R-D133R      D141R            D133R            32         0.01       0          0          0          0         
F231-F210        F231             F210             35         0.01       0          0          0          0         
F222-F221        F222             F221             35         0.01       0          0          0          0         
F221-F208        F221             F208             46         0.01       0          0          0          0         
F212-F211        F212             F211             24         0.01       0          0          0          0         
F211-F210        F211             F210             38         0.01       0          0          0          0         
F210-F209        F210             F209             42         0.01       0          0          0          0         
F209-F208        F209             F208             46         0.01       0          0          0          0         
F208-F207        F208             F207             38         0.01       0          0          0          0         
F207-F206        F207             F206             48         0.01       0          0          0          0         
F206-F205        F206             F205             28         0.01       0          0          0          0         
F163-F162        F163             F162             24         0.01       0          0          0          0         
F134-F133        F134             F133             23         0.01       0          0          0          0         
F135-F134        F135             F134             46         0.01       0          0          0          0         
F133-F132        F133             F132             28         0.01       0          0          0          0         
F132-F131        F132             F131             51         0.01       0          0          0          0         
F131-F111        F131             F111             18         0.01       0          0          0          0         
F123-F122        F123             F122             73         0.01       0          0          0          0         
F122-F121        F122             F121             74         0.01       0          0          0          0         
F121-F120        F121             F120             64         0.01       0          0          0          0         
F120-F119        F120             F119             74         0.01       0          0          0          0         
F119-F118        F119             F118             81         0.01       0          0          0          0         
F118-F117        F118             F117             80         0.01       0          0          0          0         
F117-F116        F117             F116             86         0.01       0          0          0          0         
F116-F115        F116             F115             74         0.01       0          0          0          0         
F115-F114        F115             F114             41         0.01       0          0          0          0         
F114-F113        F114             F113             72         0.01       0          0          0          0         
F113-F112        F113             F112             47         0.01       0          0          0          0         
F112-F111        F112             F111             59         0.01       0          0          0          0         
F111-F110        F111             F110             31         0.01       0          0          0          0         
F110-F109        F110             F109             39         0.01       0          0          0          0         
F109-F108        F109             F108             58         0.01       0          0          0          0         
F108-F107        F108             F107             58         0.01       0          0          0          0         
F107-F106        F107             F106             57         0.01       0          0          0          0         
F106-F105        F106             F105             56         0.01       0          0          0          0         
F105-F104        F105             F104             60         0.01       0          0          0          0         
F104-F103        F104             F103             61         0.01       0          0          0          0         
F103-F102        F103             F102             59         0.01       0          0          0          0         
F102-F101        F102             F101             61         0.01       0          0          0          0         
F52-F51          F52              F51              45         0.01       0          0          0          0         
F51-F50          F51              F11              12         0.01       0          0          0          0         
RÜ_Poststrasse-F257 RÜ_Poststrasse   F257             40         0.01       0          0          0          0         
F257-F256        F257             F256             46         0.01       0          0          0          0         
F256-RÜB_Berggasse F256             RÜB_Berggasse    15         0.01       0          0          0          0         
RÜB_Berggasse-F251 RÜB_Berggasse    F251             21         0.01       0          0          0          0         
F251-F250        F251             F250             15         0.01       0          0          0          0         
F250-F249        F250             F249             53         0.01       0          0          0          0         
F249-F248        F249             F248             8          0.01       0          0          0          0         
F248-F247        F248             F247             19         0.01       0          0          0          0         
F247-F246        F247             F246             45         0.01       0          0          0          0         
F246-F245        F246             F245             17         0.01       0          0          0          0         
F245-F244        F245             F244             25         0.01       0          0          0          0         
F244-F243        F244             F243             48         0.01       0          0          0          0         
F243-F242        F243             F242             59         0.01       0          0          0          0         
F242-F241        F242             F241             59         0.01       0          0          0          0         
F241-F3          F241             F3               59         0.01       0          0          0          0         
F255-F254        F255             F254             23         0.01       0          0          0          0         
F254-F253        F254             F253             24         0.01       0          0          0          0         
F253-F251        F253             F251             9          0.01       0          0          0          0         
F205-F204        F205             F204             40         0.01       0          0          0          0         
F204-F203        F204             FF203            23         0.01       0          0          0          0         
F203-F202        FF203            F202             52         0.01       0          0          0          0         
F202-F201        F202             F201             42         0.01       0          0          0          0         
F201-F21         F201             F21              10         0.01       0          0          0          0         
F192-F191        F192             F191             24         0.01       0          0          0          0         
F191-F182        F191             F182             39         0.01       0          0          0          0         
F185-F184        F185             F184             33         0.01       0          0          0          0         
F184-F183        F184             F183             31         0.01       0          0          0          0         
F183-F182        F183             F182             56         0.01       0          0          0          0         
F182-F181        F182             F181             36         0.01       0          0          0          0         
F182-F94         F181             F94              44         0.01       0          0          0          0         
F162-F161        F162             F161             63         0.01       0          0          0          0         
F161-F83         F161             F83              83         0.01       0          0          0          0         
F154-F153        F154             F153             25         0.01       0          0          0          0         
F152-F153        F153             F152             16         0.01       0          0          0          0         
F152-F151        F152             F151             24         0.01       0          0          0          0         
F151-F88         F151             F88              7          0.01       0          0          0          0         
F146-F145        F146             F145             11         0.01       0          0          0          0         
F145-F144        F145             F144             7          0.01       0          0          0          0         
F144-F143        F144             F143             23         0.01       0          0          0          0         
F143-F142        F143             F142             33         0.01       0          0          0          0         
F142-F141        F142             F141             31         0.01       0          0          0          0         
F141-F83         F141             F83              46         0.01       0          0          0          0         
F101-F95         F101             F95              49         0.01       0          0          0          0         
F95-F94          F95              F94              33         0.01       0          0          0          0         
F94-F93          F94              F93              54         0.01       0          0          0          0         
F93-F92          F93              F92              62         0.01       0          0          0          0         
F92-F91          F92              F91              16         0.01       0          0          0          0         
F91-F90          F91              F90              23         0.01       0          0          0          0         
F90-F89          F90              F89              28         0.01       0          0          0          0         
F89-F88          F89              F88              34         0.01       0          0          0          0         
F88-F87          F88              F87              15         0.01       0          0          0          0         
F87-F86          F87              F86              43         0.01       0          0          0          0         
F86-F82          F86              F85              43         0.01       0          0          0          0         
F85-F84          F85              F84              51         0.01       0          0          0          0         
F84-F83          F84              F83              9          0.01       0          0          0          0         
F83-F82          F83              F82              73         0.01       0          0          0          0         
F82-F81          F82              F81              28         0.01       0          0          0          0         
F81-F11          F81              F11              15         0.01       0          0          0          0         
F71-F64          F71              F64              55         0.01       0          0          0          0         
F65-F64          F65              F64              53         0.01       0          0          0          0         
F64-F63          F64              F63              17         0.01       0          0          0          0         
F63-F62          F63              F62              67         0.01       0          0          0          0         
F62-F61          F62              F61              66         0.01       0          0          0          0         
F61-F6           F61              F6               45         0.01       0          0          0          0         
F42-F41          F42              F41              24         0.01       0          0          0          0         
F41-F25          F41              F25              28         0.01       0          0          0          0         
F32-F31          F32              F31              26         0.01       0          0          0          0         
F31-F24          F31              F24              34         0.01       0          0          0          0         
RÜB_Wilhof-F177  RÜB_Wilhof       F177             61         0.01       0          0          0          0         
F177-F176        F177             F176             59         0.01       0          0          0          0         
F176-F175        F176             F175             61         0.01       0          0          0          0         
F175-F174        F175             F174             75         0.01       0          0          0          0         
F174-F173        F174             F173             17         0.01       0          0          0          0         
F173-F172        F173             F172             80         0.01       0          0          0          0         
F172-F171        F172             F171             5          0.01       0          0          0          0         
F171-F11         F171             F11              12         0.01       0          0          0          0         
F27-F26          F27              F26              24         0.01       0          0          0          0         
F26-F25          F26              F25              44         0.01       0          0          0          0         
F25-F24          F25              F24              19         0.01       0          0          0          0         
F24-F23          F24              F23              30         0.01       0          0          0          0         
F23-F22          F23              F22              39         0.01       0          0          0          0         
F22-F21          F22              F21              43         0.01       0          0          0          0         
F21-F20          F21              F20              7          0.01       0          0          0          0         
F20-F19          F20              F19              16         0.01       0          0          0          0         
F19-F18          F19              F18              32         0.01       0          0          0          0         
F18-F17          F18              F17              39         0.01       0          0          0          0         
F17-F16          F17              F16              13         0.01       0          0          0          0         
F15-F15          F16              F15              50         0.01       0          0          0          0         
F15-F14          F15              F14              24         0.01       0          0          0          0         
F14-F13          F14              F13              40         0.01       0          0          0          0         
F13-F11          F13              F11              36         0.01       0          0          0          0         
F11-F10          F11              F10              25         0.01       0          0          0          0         
F10-F9           F10              F9               26         0.01       0          0          0          0         
F9-F8            F9               F8               47         0.01       0          0          0          0         
F8-F7            F8               F7               65         0.01       0          0          0          0         
F7-F6            F7               F6               64         0.01       0          0          0          0         
F6-F5            F6               F5               43         0.01       0          0          0          0         
F5-F4            F5               F4               31         0.01       0          0          0          0         
F4-F3            F4               F3               13         0.01       0          0          0          0         
F3-F2            F3               F2               60         0.01       0          0          0          0         
F2-RÜB_Morgental F2               rus4             17         0.01       0          0          0          0         
F231R-F210R      F231R            F210R            35         0.01       0          0          0          0         
F222R-F221R      F222R            F221R            34         0.01       0          0          0          0         
F221R-F208R      F221R            F208R            46         0.01       0          0          0          0         
F212R-F211R      F212R            F211R            24         0.01       0          0          0          0         
F211R-F210R      F211R            F210R            38         0.01       0          0          0          0         
F210R-F209R      F210R            F209R            43         0.01       0          0          0          0         
F209R-F208R      F209R            F208R            45         0.01       0          0          0          0         
F208R-F207R      F208R            F207R            42         0.01       0          0          0          0         
F86R-F85R        F86R             F85R             24         0.01       0          0          0          0         
F85R-F84R        F85R             F84R             27         0.01       0          0          0          0         
F84R-F83R        F84R             F83R             32         0.01       0          0          0          0         
F83R-F82R        F83R             F82R             23         0.01       0          0          0          0         
F82R-F81R        F82R             F81R             25         0.01       0          0          0          0         
F81R-F69R        F81R             F69R             7          0.01       0          0          0          0         
F69R-F68R        F69R             F68R             34         0.01       0          0          0          0         
F68R-F67R        F68R             F67R             61         0.01       0          0          0          0         
F67R-F66R        F67R             F66R             7          0.01       0          0          0          0         
F66R-F65R        F66R             F65R             41         0.01       0          0          0          0         
F65R-F64R        F65R             F64R             51         0.01       0          0          0          0         
F64R-F63R        F64R             R63F             31         0.01       0          0          0          0         
F71R-F64R        F71R             F64R             56         0.01       0          0          0          0         
F52R-F51R        F52R             F51R             44         0.01       0          0          0          0         
F51R-F69R        F51R             F69R             19         0.01       0          0          0          0         
E94-E93          E94              E93              16         0.01       0          0          0          0         
;edit_fbl
E93-E92          E93              E92              16         0.01       0          0          0          0         
E92-E91          E92              E91              18         0.01       0          0          0          0         
E91-E82          E91              E82              17         0.01       0          0          0          0         
E86-E85          E86              E85              37         0.01       0          0          0          0         
E85-E84          E85              E84              35         0.01       0          0          0          0         
E84-E83          E84              E83              37         0.01       0          0          0          0         
E83-E82          E83              E82              16         0.01       0          0          0          0         
E81-E81          E82              E81              37         0.01       0          0          0          0         
E81-E65          E81              E65              39         0.01       0          0          0          0         
E76-E75          E76              E75              21         0.01       0          0          0          0         
E75-E74          E75              E74              28         0.01       0          0          0          0         
E74-E73          E74              E73              19         0.01       0          0          0          0         
E73-E71          E73              E71              38         0.01       0          0          0          0         
E71-E70          E71              E70              4          0.01       0          0          0          0         
E70-E69          E70              E69              33         0.01       0          0          0          0         
E69-E68          E69              E68              17         0.01       0          0          0          0         
E68-E67          E68              E67              12         0.01       0          0          0          0         
E67-E66          E67              E66              60         0.01       0          0          0          0         
E66-E65          E66              E65              11         0.01       0          0          0          0         
E65-E64          E65              E64              36         0.01       0          0          0          0         
E64-E63          E64              E63              28         0.01       0          0          0          0         
E63-E62          E63              E62              37         0.01       0          0          0          0         
E62-E61          E62              E61              34         0.01       0          0          0          0         
E61-E7           E61              E7               11         0.01       0          0          0          0         
E51-E45          E51              E45              31         0.01       0          0          0          0         
E49-E48          E49              E48              40         0.01       0          0          0          0         
E48-E47          E48              E47              11         0.01       0          0          0          0         
E47-E46          E47              E46              46         0.01       0          0          0          0         
E46-E45          E46              E45              46         0.01       0          0          0          0         
E45-E44          E45              E44              32         0.01       0          0          0          0         
E44-E41          E44              E41              142        0.01       0          0          0          0         
E41-RÜB_Wilhof   E41              RÜB_Wilhof       10         0.01       0          0          0          0         
E18-E17          E18              E17              40         0.01       0          0          0          0         
E17-E16          E17              E16              42         0.01       0          0          0          0         
E16-E15          E16              E15              58         0.01       0          0          0          0         
E15-E14          E15              E14              51         0.01       0          0          0          0         
E14-E13          E14              E13              13         0.01       0          0          0          0         
E13-E12          E13              E12              68         0.01       0          0          0          0         
E12-E11          E12              E11              65         0.01       0          0          0          0         
E11-E10          E11              E10              55         0.01       0          0          0          0         
E10-E9           E10              E9               58         0.01       0          0          0          0         
E9-E8            E9               E8               8          0.01       0          0          0          0         
E8-E7            E8               E7               63         0.01       0          0          0          0         
E7-E6            E7               E6               20         0.01       0          0          0          0         
E6-E5            E6               E5               13         0.01       0          0          0          0         
E5-E4            E5               E4               55         0.01       0          0          0          0         
E4-E3            E4               E3               64         0.01       0          0          0          0         
E3-E2            E3               E2               52         0.01       0          0          0          0         
E2-RÜB_Wilhof    E2               RÜB_Wilhof       48         0.01       0          0          0          0         
10-10a           10_              10a              45.054     0.011764706 0          0          0          0         
10a-10b          10a              10b              45.037     0.011764706 0          0          0          0         
10b-10c          10b              10c              44.970     0.011764706 0          0.18       0          0         
10c-11           10c              11               23.105     0.011764706 0          0          0          0         
11-11a           11               11a              58.919     0.011764706 0          0          0          0         
11a-11b          11a              11b              58.950     0.011764706 0          0          0          0         
11b-11c          11b              11c              46.934     0.011764706 0          0          0          0         
11c-11d          11c              11d              46.949     0.011764706 0          0          0          0         
2c-2d            2c               2d               46.356     0.011764706 0          0          0          80        
2d-2e            2d               2e               36.293     0.011764706 0          2.31       0          0         
2e-2f            2e               2f               98.954     0.011764706 0          0.02       0          0         
2f-10            2f               10_              51.732     0.011764706 0          0          0          0         
411-412          411              412              55.544     0.011764706 0          0          0          0         
412-413          412              413              60.297     0.011764706 0          0          0          0         
413-414          413              414              64.871     0.011764706 0          0          0          0         
414-415          414              415              64.734     0.011764706 0          0          0          0         
415-416          415              416              64.780     0.011764706 0          0          0          0         
416-11b          416              11b              64.809     0.011764706 0          0          0          0         
RKB_Morgenthal_throttle rus4             2c               200        0.011764706 0          0          0          80        

[PUMPS]
;;Name           From Node        To Node          Pump Curve       Status   Sartup Shutoff 
;;-------------- ---------------- ---------------- ---------------- ------ -------- --------
PW_P+RBahnhof    GU63_Pumpensch.  127              PW_Bahnhof_QPmax ON       0        0       
PW80_Industrie   RÜB+PW80_Industrie 597h             PW_Industrie_Qpmax ON       1        0.35    
EntleerungspumpeFBARA FB_ARA           Node_1           Entleerungspumpe_FB_ARA OFF      0.25     0.05    
EntleerungspumpeRB59 RB_59            Node_1           Entleerungspumpe_RB_ARA OFF      0.4      0.1     
EntleerungspumpeRÜBUsterstrasse RÜB_Usterstrasse RÜB_128          Entleerungspumpe_Usterstrasse OFF      0.6      0.15    

[WEIRS]
;;Name           From Node        To Node          Type         CrestHt    Qcoeff     Gated    EndCon   EndCoeff   Surcharge  RoadWidth  RoadSurf   Coeff. Curve
;;-------------- ---------------- ---------------- ------------ ---------- ---------- -------- -------- ---------- ---------- ---------- ---------- ----------------
FK_102           SK102_SBW        SK102.2          SIDEFLOW     0.85       1.5        NO       0        0          YES       
RÜ_48a           48a_SBW          48b_SBW          TRANSVERSE   0.37       1.5        NO       0        0          YES       
RÜ40a_Kempttalstrasse RA_40a_SBW       RA40a            SIDEFLOW     0.8        1.5        NO       0        0          YES       
;Original value INlet Offset: 2.41
RÜB_59_A         RB_59            Node_5           TRANSVERSE   3.2        1.5        NO       0        0          YES       
RÜB_59_E         RK59_Deckel01    RB_59            SIDEFLOW     1.06       1.5        NO       0        0          YES       
;Inlet Offset from 3.04 to 3.66
RÜB_Industrie    RÜB+PW80_Industrie Node_7           TRANSVERSE   3.66       1.5        NO       0        0          YES       
;Inlet Offset changed from 2.58 to 3.04m
;01/12/2017, fbl: reverse inlet offset change
RÜB_Usterstrasse_A RÜB_Usterstrasse 138_SBW_Entlastung TRANSVERSE   2.58       1.5        YES      0        0          YES       
;01/12/2017, fbl: set FLAP GATE to NO
RÜB_Usterstrasse_E RÜB_128          RÜB_Usterstrasse SIDEFLOW     1.02       1.5        NO       0        0          YES       
ÜS_58            58_Spezialsch._  58_SBW           SIDEFLOW     1.21       1.5        NO       0        0          YES       
ÜS_596           596__Spez.sch.   596              SIDEFLOW     0.42       1.5        NO       0        0          YES       
ÜS_597           597.2_SBW        597_SBW          SIDEFLOW     0.45       1.5        NO       0        0          YES       
ÜS_ARA           Node_1           Node_3           TRANSVERSE   0.3        1.84       YES      0        0          YES       
Weir_Kronentobel RÜB_Kronentobel  B215R            TRANSVERSE   3          3.33       NO       0        0          YES       
Weir_Dorfbach    RÜ_Poststrasse   Outfall_R_Dorfbach TRANSVERSE   1.1        3.33       NO       0        0          YES       
RÜB_Berggasse-Outfall_RÜB_D RÜB_Berggasse    Outfall_RÜB_D    TRANSVERSE   2.7        3.33       NO       0        0          YES       
2                RÜB_Wilhof       outfall_wilhof   TRANSVERSE   3          3.33       NO       0        0          YES       
Weir_CSOmorgental rus4             rohrbach         SIDEFLOW     3.4        3.33       NO       0        0          YES       
Weir_RUBmorgental_inflow rus4             RKB_Morgenthal   SIDEFLOW     3.05       3.33       NO       0        0          YES       

[XSECTIONS]
;;Link           Shape        Geom1            Geom2      Geom3      Geom4      Barrels    Culvert   
;;-------------- ------------ ---------------- ---------- ---------- ---------- ---------- ----------
102c-L188        CIRCULAR     0.8              0          0          0          1                    
102f-L226        CIRCULAR     0.45             0          0          0          1                    
102k-L224        CIRCULAR     0.3              0          0          0          1                    
103b-L162        CIRCULAR     0.9              0          0          0          1                    
104a-L229        CIRCULAR     0.35             0          0          0          1                    
104e-105_SBW     CIRCULAR     0.35             0          0          0          1                    
106-121          CIRCULAR     0.5              0          0          0          1                    
1100-1101        CIRCULAR     0.3              0          0          0          1                    
1101-1102        CIRCULAR     0.3              0          0          0          1                    
1102-1103        CIRCULAR     0.3              0          0          0          1                    
1103-1104        CIRCULAR     0.3              0          0          0          1                    
1104-1105        CIRCULAR     0.3              0          0          0          1                    
1105-1106        CIRCULAR     0.3              0          0          0          1                    
1106-41          CIRCULAR     0.3              0          0          0          1                    
115a-116         CIRCULAR     0.35             0          0          0          1                    
116-106          CIRCULAR     0.35             0          0          0          1                    
11d-GU25         CIRCULAR     0.4              0          0          0          1                    
11f-11g          CIRCULAR     0.4              0          0          0          1                    
11g-11h          CIRCULAR     0.45             0          0          0          1                    
121-122          CIRCULAR     0.5              0          0          0          1                    
12-12a           CIRCULAR     0.45             0          0          0          1                    
122-123          CIRCULAR     0.5              0          0          0          1                    
123-123a         CIRCULAR     0.6              0          0          0          1                    
123a-124         CIRCULAR     0.6              0          0          0          1                    
124-124a         CIRCULAR     0.7              0          0          0          1                    
125-126          CIRCULAR     1.25             0          0          0          1                    
126-128a         CIRCULAR     1.25             0          0          0          1                    
127.2-127        CIRCULAR     0.3              0          0          0          1                    
127cSW-127dSW    CIRCULAR     0.25             0          0          0          1                    
127d_SW-127e_SW  CIRCULAR     0.25             0          0          0          1                    
127e_SW-127f_SBW CIRCULAR     0.3              0          0          0          1                    
127f_SBW-127.2   CIRCULAR     0.3              0          0          0          1                    
127gSW-L64       CIRCULAR     0.25             0          0          0          1                    
127hSW-L5        CIRCULAR     0.25             0          0          0          1                    
128.1-128a.1     CIRCULAR     1.25             0          0          0          1                    
12b-12           CIRCULAR     0.25             0          0          0          1                    
134a_SW-134b_SW  CIRCULAR     0.25             0          0          0          1                    
134b_SW-134c_SW  CIRCULAR     0.25             0          0          0          1                    
134c_SW-134SW    CIRCULAR     0.25             0          0          0          1                    
134SW-135MW      CIRCULAR     0.35             0          0          0          1                    
135-136          CIRCULAR     0.45             0          0          0          1                    
136MW-137        CIRCULAR     0.45             0          0          0          1                    
137-138.1        CIRCULAR     0.45             0          0          0          1                    
138.3-161        CIRCULAR     1.596            0          0          0          1                    
138a-138.2       CIRCULAR     0.4              0          0          0          1                    
141a-142SW       CIRCULAR     0.3              0          0          0          1                    
142aSW-134RW     CIRCULAR     0.35             0          0          0          1                    
142aSW-134RW(39196) CIRCULAR     0.35             0          0          0          1                    
142SW-142aSW     CIRCULAR     0.3              0          0          0          1                    
143-144          CIRCULAR     0.3              0          0          0          1                    
144-146          CIRCULAR     0.3              0          0          0          1                    
145-L452         CIRCULAR     0.3              0          0          0          1                    
150b-150c        CIRCULAR     0.3              0          0          0          1                    
157.3-125.1      CIRCULAR     1.25             0          0          0          1                    
157a-449a        CIRCULAR     0.6              0          0          0          1                    
157a-L87         CIRCULAR     1                0          0          0          1                    
159b-159c        CIRCULAR     0.3              0          0          0          1                    
159c-159d        CIRCULAR     0.3              0          0          0          1                    
159d-L119        CIRCULAR     0.3              0          0          0          1                    
160MW-135MW      CIRCULAR     0.4              0          0          0          1                    
161-162          CIRCULAR     0.45             0          0          0          1                    
162-163          CIRCULAR     0.45             0          0          0          1                    
163-164          CIRCULAR     0.5              0          0          0          1                    
164-165          CIRCULAR     0.5              0          0          0          1                    
165-166          CIRCULAR     0.5              0          0          0          1                    
166-167          CIRCULAR     0.5              0          0          0          1                    
167-48           CIRCULAR     0.8              0          0          0          1                    
17a-17b          CIRCULAR     0.3              0          0          0          1                    
17c-17d          CIRCULAR     0.25             0          0          0          1                    
17d-17e          CIRCULAR     0.25             0          0          0          1                    
17e-17f          CIRCULAR     0.25             0          0          0          1                    
17f-17g          CIRCULAR     0.25             0          0          0          1                    
17g-17a          CIRCULAR     0.25             0          0          0          1                    
206-206a         CIRCULAR     0.5              0          0          0          1                    
206b-50          CIRCULAR     0.5              0          0          0          1                    
207-207c         CIRCULAR     0.3              0          0          0          1                    
207a-208         CIRCULAR     0.3              0          0          0          1                    
207b-207a        CIRCULAR     0.35             0          0          0          1                    
207c-207b        CIRCULAR     0.3              0          0          0          1                    
207e-207         CIRCULAR     0.3              0          0          0          1                    
208-209          CIRCULAR     0.3              0          0          0          1                    
210-211          CIRCULAR     0.35             0          0          0          1                    
211-206          CIRCULAR     0.45             0          0          0          1                    
26.3-L268        CIRCULAR     0.4              0          0          0          1                    
26.4-L272        CIRCULAR     0.3              0          0          0          1                    
28-28a           CIRCULAR     0.4              0          0          0          1                    
284a-L433        CIRCULAR     0.3              0          0          0          1                    
285-L279         CIRCULAR     0.4              0          0          0          1                    
287-28           CIRCULAR     0.4              0          0          0          1                    
36a-40           CIRCULAR     0.45             0          0          0          1                    
376-377b         CIRCULAR     0.25             0          0          0          1                    
376a-376         CIRCULAR     0.25             0          0          0          1                    
377-378          CIRCULAR     0.3              0          0          0          1                    
377a-377b        CIRCULAR     0.25             0          0          0          1                    
377b-377c        CIRCULAR     0.25             0          0          0          1                    
377c-377         CIRCULAR     0.25             0          0          0          1                    
381-382          CIRCULAR     0.3              0          0          0          1                    
381a-381b        CIRCULAR     0.25             0          0          0          1                    
381b-381         CIRCULAR     0.25             0          0          0          1                    
382-382a         CIRCULAR     0.3              0          0          0          1                    
382a-382b        CIRCULAR     0.4              0          0          0          1                    
382b-384         CIRCULAR     0.4              0          0          0          1                    
385-386          CIRCULAR     0.6              0          0          0          1                    
386-387          CIRCULAR     0.6              0          0          0          1                    
387-388          CIRCULAR     0.6              0          0          0          1                    
388-389          CIRCULAR     0.6              0          0          0          1                    
38a-39           CIRCULAR     0.8              0          0          0          1                    
38-L77           CIRCULAR     0.8              0          0          0          1                    
39-39a           CIRCULAR     0.8              0          0          0          1                    
39a-40           CIRCULAR     0.8              0          0          0          1                    
40b-40d          CIRCULAR     1                0          0          0          1                    
40d-41           CIRCULAR     0.7              0          0          0          1                    
40dRW-40e        CIRCULAR     0.9              0          0          0          1                    
40e-40f          CIRCULAR     0.9              0          0          0          1                    
40i-447d         CIRCULAR     0.2              0          0          0          1                    
40-RA40a.1       CIRCULAR     0.9              0          0          0          1                    
41-41a           CIRCULAR     0.6              0          0          0          1                    
41-42            CIRCULAR     0.6              0          0          0          1                    
41a-41b          CIRCULAR     0.6              0          0          0          1                    
42-42a           CIRCULAR     0.6              0          0          0          1                    
42a-47           CIRCULAR     0.7              0          0          0          1                    
446a-446b        CIRCULAR     0.2              0          0          0          1                    
447-448          CIRCULAR     0.3              0          0          0          1                    
447d-447         CIRCULAR     0.3              0          0          0          1                    
448-448d         CIRCULAR     0.3              0          0          0          1                    
448a-448b        CIRCULAR     0.2              0          0          0          1                    
448d-448a        CIRCULAR     0.15             0          0          0          1                    
449a-L116        CIRCULAR     0.8              0          0          0          1                    
449c-449d        CIRCULAR     0.8              0          0          0          1                    
449d-449e        CIRCULAR     0.8              0          0          0          1                    
449e-449         CIRCULAR     0.9              0          0          0          1                    
450b-E245        CIRCULAR     0.2              0          0          0          1                    
451b-451c        CIRCULAR     0.3              0          0          0          1                    
451d-451e        CIRCULAR     0.3              0          0          0          1                    
45a-47           CIRCULAR     0.35             0          0          0          1                    
47-47a           CIRCULAR     0.7              0          0          0          1                    
47a-48.1         CIRCULAR     0.7              0          0          0          1                    
48.3-L12         CIRCULAR     0.9              0          0          0          1                    
48a-58_SBW       CIRCULAR     0.7              0          0          0          1                    
50-50.2          RECT_CLOSED  0.35             1.1        0          0          1                    
524_SW-L433      CIRCULAR     0.15             0          0          0          1                    
531_SW-532_SW    CIRCULAR     0.15             0          0          0          1                    
532_SW-533_SW    CIRCULAR     0.15             0          0          0          1                    
533_SW-534_SW    CIRCULAR     0.15             0          0          0          1                    
5494-597a        CIRCULAR     1.35             0          0          0          1                    
555-556          CIRCULAR     0.6              0          0          0          1                    
55-577           CIRCULAR     1                0          0          0          1                    
556-557          CIRCULAR     0.6              0          0          0          1                    
557-558          CIRCULAR     0.6              0          0          0          1                    
558-55           CIRCULAR     0.6              0          0          0          1                    
565-566          CIRCULAR     0.3              0          0          0          1                    
566-567          CIRCULAR     0.3              0          0          0          1                    
567-L269         CIRCULAR     0.3              0          0          0          1                    
56a-571          CIRCULAR     0.7              0          0          0          1                    
571-572          CIRCULAR     0.4              0          0          0          1                    
572-573          CIRCULAR     0.6              0          0          0          1                    
573-574          CIRCULAR     0.6              0          0          0          1                    
574-575          CIRCULAR     0.6              0          0          0          1                    
575-578          CIRCULAR     0.6              0          0          0          1                    
57-581           CIRCULAR     1                0          0          0          1                    
576-578          CIRCULAR     0.6              0          0          0          1                    
576a-576         CIRCULAR     0.6              0          0          0          1                    
577-57           CIRCULAR     1                0          0          0          1                    
578-579a         CIRCULAR     0.6              0          0          0          1                    
579-581a         CIRCULAR     0.6              0          0          0          1                    
579a-579b        CIRCULAR     0.6              0          0          0          1                    
579b-579c        CIRCULAR     0.6              0          0          0          1                    
579c-579d        CIRCULAR     0.6              0          0          0          1                    
579d-579         CIRCULAR     0.6              0          0          0          1                    
58_SBW-591a      CIRCULAR     0.7              0          0          0          1                    
581.2-582.1      CIRCULAR     1.1              0          0          0          1                    
582.2-583.1      CIRCULAR     1.1              0          0          0          1                    
583.2-584.1      CIRCULAR     1.1              0          0          0          1                    
584.2-585.1      CIRCULAR     1.1              0          0          0          1                    
585.2-591i       CIRCULAR     1.1              0          0          0          1                    
591-592          CIRCULAR     0.7              0          0          0          1                    
591a-591         CIRCULAR     0.7              0          0          0          1                    
591c-591b        CIRCULAR     0.25             0          0          0          1                    
591c-591d        CIRCULAR     0.25             0          0          0          1                    
591d-591e        CIRCULAR     0.25             0          0          0          1                    
591e-591f        CIRCULAR     0.3              0          0          0          1                    
591f-591g        CIRCULAR     0.3              0          0          0          1                    
591h-591j        CIRCULAR     0.3              0          0          0          1                    
591i-591j        CIRCULAR     0.3              0          0          0          1                    
591j-591a        CIRCULAR     0.3              0          0          0          1                    
591q-E98         CIRCULAR     0.35             0          0          0          1                    
591r-591f        CIRCULAR     0.3              0          0          0          1                    
592-596a         CIRCULAR     0.7              0          0          0          1                    
593-594          CIRCULAR     0.7              0          0          0          1                    
594-597a         CIRCULAR     0.7              0          0          0          1                    
596.3-596a       CIRCULAR     0.3              0          0          0          1                    
596a-593         CIRCULAR     0.7              0          0          0          1                    
597a-595         CIRCULAR     0.7              0          0          0          1                    
597b-597c        CIRCULAR     0.3              0          0          0          1                    
597c-597d        CIRCULAR     0.35             0          0          0          1                    
597d-597e        CIRCULAR     0.45             0          0          0          1                    
597e-597f        CIRCULAR     0.6              0          0          0          1                    
597f-597g        CIRCULAR     0.6              0          0          0          1                    
597g-597h        CIRCULAR     0.8              0          0          0          1                    
597j-597k        CIRCULAR     0.5              0          0          0          1                    
597k-597g        CIRCULAR     0.5              0          0          0          1                    
597m-597n        CIRCULAR     0.3              0          0          0          1                    
597n-597e        CIRCULAR     0.3              0          0          0          1                    
5h-L193          CIRCULAR     0.25             0          0          0          1                    
6_SBW-6a         CIRCULAR     0.45             0          0          0          1                    
604a-604b        CIRCULAR     0.35             0          0          0          1                    
604b-L237        CIRCULAR     0.4              0          0          0          1                    
6a-6b            CIRCULAR     0.45             0          0          0          1                    
6b-L242          CIRCULAR     0.45             0          0          0          1                    
801.2-802        CIRCULAR     0.9              0          0          0          1                    
801a-801b        CIRCULAR     0.3              0          0          0          1                    
801b-801c        CIRCULAR     0.4              0          0          0          1                    
801c-801d        CIRCULAR     0.6              0          0          0          1                    
801d-801.1       CIRCULAR     0.7              0          0          0          1                    
801e-801f        CIRCULAR     0.35             0          0          0          1                    
801f-801c        CIRCULAR     0.45             0          0          0          1                    
801i-801d        CIRCULAR     0.45             0          0          0          1                    
802-803.2        CIRCULAR     0.9              0          0          0          1                    
803-804          CIRCULAR     1                0          0          0          1                    
803a-803.1       CIRCULAR     0.5              0          0          0          1                    
804-805.2        CIRCULAR     1                0          0          0          1                    
805-80.1         CIRCULAR     1.5              0          0          0          1                    
805a-805b        CIRCULAR     0.45             0          0          0          1                    
805b-805c        CIRCULAR     0.7              0          0          0          1                    
805c-805d        CIRCULAR     0.8              0          0          0          1                    
805d-805e        CIRCULAR     0.8              0          0          0          1                    
805e-805f        CIRCULAR     0.8              0          0          0          1                    
805g-805.1       CIRCULAR     0.9              0          0          0          1                    
805h-805b        CIRCULAR     0.4              0          0          0          1                    
805i-805b        CIRCULAR     0.45             0          0          0          1                    
809-597_SBW      CIRCULAR     0.8              0          0          0          1                    
897i-597j        CIRCULAR     0.4              0          0          0          1                    
948-L203         CIRCULAR     0.3              0          0          0          1                    
GU22-157a        CIRCULAR     1                0          0          0          1                    
GU25-11f         CIRCULAR     0.4              0          0          0          1                    
GU31-L115        CIRCULAR     0.6              0          0          0          1                    
HAL1             CIRCULAR     0.7              0          0          0          1                    
HAL105           CIRCULAR     0.5              0          0          0          1                    
HAL1064          CIRCULAR     0.5              0          0          0          1                    
HAL1091          CIRCULAR     0.5              0          0          0          1                    
HAL114           CIRCULAR     0.3              0          0          0          1                    
HAL115           CIRCULAR     0.3              0          0          0          1                    
HAL117           CIRCULAR     0.3              0          0          0          1                    
HAL119           CIRCULAR     0.35             0          0          0          1                    
HAL119(53797)    CIRCULAR     0.35             0          0          0          1                    
HAL120           CIRCULAR     0.3              0          0          0          1                    
HAL1294          CIRCULAR     0.3              0          0          0          1                    
HAL1524          CIRCULAR     0.3              0          0          0          1                    
HAL157           CIRCULAR     0.4              0          0          0          1                    
HAL159           CIRCULAR     0.3              0          0          0          1                    
HAL16            CIRCULAR     0.3              0          0          0          1                    
HAL1600          CIRCULAR     0.9              0          0          0          1                    
HAL1666          CIRCULAR     0.6              0          0          0          1                    
HAL1688          CIRCULAR     0.9              0          0          0          1                    
HAL1710          CIRCULAR     0.4              0          0          0          1                    
HAL1747          CIRCULAR     1.5              0          0          0          1                    
HAL1748          CIRCULAR     1.5              0          0          0          1                    
HAL18            CIRCULAR     0.7              0          0          0          1                    
HAL1813          CIRCULAR     0.7              0          0          0          1                    
HAL19            CIRCULAR     0.9              0          0          0          1                    
HAL2             CIRCULAR     0.4              0          0          0          1                    
HAL21            CIRCULAR     1                0          0          0          1                    
HAL219           CIRCULAR     0.5              0          0          0          1                    
HAL22            CIRCULAR     1                0          0          0          1                    
HAL220           CIRCULAR     0.5              0          0          0          1                    
HAL221           CIRCULAR     0.5              0          0          0          1                    
HAL222           CIRCULAR     0.5              0          0          0          1                    
HAL23            CIRCULAR     0.9              0          0          0          1                    
HAL24            CIRCULAR     0.9              0          0          0          1                    
HAL25            CIRCULAR     0.2              0          0          0          1                    
HAL251           CIRCULAR     0.3              0          0          0          1                    
HAL26            CIRCULAR     0.2              0          0          0          1                    
HAL274           CIRCULAR     0.2              0          0          0          1                    
HAL30            CIRCULAR     0.7              0          0          0          1                    
HAL31            CIRCULAR     0.2              0          0          0          1                    
HAL32            CIRCULAR     0.2              0          0          0          1                    
HAL3294          CIRCULAR     0.15             0          0          0          1                    
HAL33            CIRCULAR     0.3              0          0          0          1                    
HAL34            CIRCULAR     0.7              0          0          0          1                    
HAL35            CIRCULAR     0.7              0          0          0          1                    
HAL41            CIRCULAR     0.2              0          0          0          1                    
HAL4360          CIRCULAR     0.3              0          0          0          1                    
HAL4750          CIRCULAR     0.4              0          0          0          1                    
HAL52            CIRCULAR     0.2              0          0          0          1                    
HAL54            CIRCULAR     0.2              0          0          0          1                    
HAL609           CIRCULAR     0.25             0          0          0          1                    
HAL68            CIRCULAR     0.3              0          0          0          1                    
HAL70            CIRCULAR     0.3              0          0          0          1                    
HAL72            CIRCULAR     0.15             0          0          0          1                    
HAL737           CIRCULAR     0.3              0          0          0          1                    
HAL749           CIRCULAR     0.35             0          0          0          1                    
HAL75            CIRCULAR     0.3              0          0          0          1                    
HAL750           CIRCULAR     0.45             0          0          0          1                    
HAL751           CIRCULAR     0.45             0          0          0          1                    
HAL775           CIRCULAR     1.35             0          0          0          1                    
HAL788           CIRCULAR     0.25             0          0          0          1                    
HAL789           CIRCULAR     0.3              0          0          0          1                    
HAL790           CIRCULAR     0.35             0          0          0          1                    
HAL791           CIRCULAR     0.35             0          0          0          1                    
HAL878           CIRCULAR     0.3              0          0          0          1                    
Kanalanfang2-1188 CIRCULAR     0.2              0          0          0          1                    
L114-L107        CIRCULAR     0.3              0          0          0          1                    
L116-449c        CIRCULAR     0.8              0          0          0          1                    
L119-160MW       CIRCULAR     0.4              0          0          0          1                    
L120-L126        CIRCULAR     1                0          0          0          1                    
L128-L22a        CIRCULAR     1                0          0          0          1                    
L129-150c        CIRCULAR     0.6              0          0          0          1                    
L130-L88         CIRCULAR     0.6              0          0          0          1                    
L134-L130        CIRCULAR     0.6              0          0          0          1                    
L136-L131        CIRCULAR     0.6              0          0          0          1                    
L138.4-L48       CIRCULAR     0.45             0          0          0          1                    
L140-L137        CIRCULAR     0.6              0          0          0          1                    
L143-L141        CIRCULAR     0.5              0          0          0          1                    
L144-L145        CIRCULAR     0.3              0          0          0          1                    
L145-L143        CIRCULAR     0.4              0          0          0          1                    
L146-L144        CIRCULAR     0.3              0          0          0          1                    
L150-106         CIRCULAR     0.45             0          0          0          1                    
L157-L110        CIRCULAR     0.25             0          0          0          1                    
L162-103d        CIRCULAR     0.9              0          0          0          1                    
L164-L163        CIRCULAR     0.35             0          0          0          1                    
L166-103b        CIRCULAR     0.9              0          0          0          1                    
L168-L164        CIRCULAR     0.35             0          0          0          1                    
L169-L168        CIRCULAR     0.3              0          0          0          1                    
L176-L169        CIRCULAR     0.3              0          0          0          1                    
L180-L217        CIRCULAR     0.8              0          0          0          1                    
L181-L210        CIRCULAR     0.4              0          0          0          1                    
L182-L215        CIRCULAR     0.7              0          0          0          1                    
L185-102c        CIRCULAR     0.8              0          0          0          1                    
L186-L183        CIRCULAR     0.8              0          0          0          1                    
L187-L165        CIRCULAR     0.9              0          0          0          1                    
L189-L166        CIRCULAR     0.9              0          0          0          1                    
L191-L198        CIRCULAR     0.35             0          0          0          1                    
L199-L206        CIRCULAR     0.35             0          0          0          1                    
L217-L186        CIRCULAR     0.8              0          0          0          1                    
L221-L182        CIRCULAR     0.7              0          0          0          1                    
L222-L205        CIRCULAR     0.3              0          0          0          1                    
L224-L225        CIRCULAR     0.4              0          0          0          1                    
L225-102f        CIRCULAR     0.45             0          0          0          1                    
L226-L184        CIRCULAR     0.5              0          0          0          1                    
L229-L230        CIRCULAR     0.45             0          0          0          1                    
L230-L231        CIRCULAR     0.45             0          0          0          1                    
L231-L151        CIRCULAR     0.45             0          0          0          1                    
L232-L221        CIRCULAR     0.7              0          0          0          1                    
L235-605alt      CIRCULAR     0.3              0          0          0          1                    
L237-L230        CIRCULAR     0.3              0          0          0          1                    
L242-L243        CIRCULAR     0.45             0          0          0          1                    
L243-L244        CIRCULAR     0.45             0          0          0          1                    
L244-L245        CIRCULAR     0.5              0          0          0          1                    
L245-9           CIRCULAR     0.5              0          0          0          1                    
L246-L247        CIRCULAR     1                0          0          0          1                    
L248-L246        CIRCULAR     0.6              0          0          0          1                    
L250-L458        CIRCULAR     0.7              0          0          0          1                    
L252-801f        CIRCULAR     0.3              0          0          0          1                    
L261-26.2        CIRCULAR     0.15             0          0          0          1                    
L268-L269        CIRCULAR     0.4              0          0          0          1                    
L269-L270        CIRCULAR     0.4              0          0          0          1                    
L270-L271        CIRCULAR     0.4              0          0          0          1                    
L271-28          CIRCULAR     0.4              0          0          0          1                    
L272-L273        CIRCULAR     0.35             0          0          0          1                    
L273-571         CIRCULAR     0.4              0          0          0          1                    
L274-L275        CIRCULAR     0.4              0          0          0          1                    
L275-L276        CIRCULAR     0.4              0          0          0          1                    
L276-L277        CIRCULAR     0.4              0          0          0          1                    
L277-L278        CIRCULAR     0.4              0          0          0          1                    
L278-36a_1       CIRCULAR     0.4              0          0          0          1                    
L279-287         CIRCULAR     0.4              0          0          0          1                    
L376-L426        CIRCULAR     0.15             0          0          0          1                    
L409-L411        CIRCULAR     0.15             0          0          0          1                    
L411-L413        CIRCULAR     0.15             0          0          0          1                    
L416-L409        CIRCULAR     0.15             0          0          0          1                    
L418-L423        CIRCULAR     0.15             0          0          0          1                    
L422-L411        CIRCULAR     0.15             0          0          0          1                    
L423-L422        CIRCULAR     0.15             0          0          0          1                    
L433-L429        CIRCULAR     0.15             0          0          0          1                    
L433-L434        CIRCULAR     0.35             0          0          0          1                    
L434-285         CIRCULAR     0.35             0          0          0          1                    
L435-L436        CIRCULAR     0.4              0          0          0          1                    
L436-L441        CIRCULAR     0.4              0          0          0          1                    
L437-L438        CIRCULAR     0.6              0          0          0          1                    
L440-386         CIRCULAR     0.45             0          0          0          1                    
L441-L440        CIRCULAR     0.45             0          0          0          1                    
L444-L445        CIRCULAR     0.35             0          0          0          1                    
L445-L446        CIRCULAR     0.4              0          0          0          1                    
L446-L447        CIRCULAR     0.5              0          0          0          1                    
L447-L448        CIRCULAR     0.5              0          0          0          1                    
L448-L459        CIRCULAR     0.7              0          0          0          1                    
L452-L453        CIRCULAR     0.4              0          0          0          1                    
L453-L454        CIRCULAR     0.4              0          0          0          1                    
L454-L480        CIRCULAR     0.4              0          0          0          1                    
L458-L246        CIRCULAR     0.8              0          0          0          1                    
L458-L246(40216) CIRCULAR     0.8              0          0          0          1                    
L459-L250        CIRCULAR     0.7              0          0          0          1                    
L462-L463        CIRCULAR     0.45             0          0          0          1                    
L464-L465        CIRCULAR     0.45             0          0          0          1                    
L465-L469        CIRCULAR     0.5              0          0          0          1                    
L466-L467        CIRCULAR     0.5              0          0          0          1                    
L467-L468        CIRCULAR     0.5              0          0          0          1                    
L468-L448        CIRCULAR     0.5              0          0          0          1                    
L470-L472        CIRCULAR     0.6              0          0          0          1                    
L471-L466        CIRCULAR     0.5              0          0          0          1                    
L472-L473        CIRCULAR     0.6              0          0          0          1                    
L475-L260        CIRCULAR     0.7              0          0          0          1                    
L477-L234        CIRCULAR     0.25             0          0          0          1                    
L479-L480        CIRCULAR     0.3              0          0          0          1                    
L480-L467        CIRCULAR     0.4              0          0          0          1                    
L482-L483        CIRCULAR     0.3              0          0          0          1                    
L483-L484        CIRCULAR     0.3              0          0          0          1                    
L484-L485        CIRCULAR     0.3              0          0          0          1                    
L485-L465        CIRCULAR     0.35             0          0          0          1                    
L489-L474        CIRCULAR     0.5              0          0          0          1                    
L490-L489        CIRCULAR     0.45             0          0          0          1                    
L491-L490        CIRCULAR     0.4              0          0          0          1                    
L492-L491        CIRCULAR     0.35             0          0          0          1                    
L499-102k        CIRCULAR     0.2              0          0          0          1                    
L49-Bacheinlauf47 CIRCULAR     1                0          0          0          1                    
L5-127gSW        CIRCULAR     0.25             0          0          0          1                    
L78-L60          CIRCULAR     0.3              0          0          0          1                    
L80-Bacheinlauf30 RECT_CLOSED  1                1          0          0          1                    
L94-E328         CIRCULAR     0.3              0          0          0          1                    
Link_1           CIRCULAR     0.7              0          0          0          1                    
Link_3           CIRCULAR     0.8              0          0          0          1                    
Link_2           CIRCULAR     0.6              0          0          0          1                    
Link_4           CIRCULAR     0.8              0          0          0          1                    
Link_5           RECT_CLOSED  1                2          0          0          1                    
Notentl.-Bach37  CIRCULAR     0.9              0          0          0          1                    
P1053-E1119      CIRCULAR     0.3              0          0          0          1                    
RA158-159a       CIRCULAR     0.4              0          0          0          1                    
RA40a.5-40b      CIRCULAR     1                0          0          0          1                    
SK_102_ST        CIRCULAR     0.9              0          0          0          1                    
SK_102_ST-115a   CIRCULAR     0.3              0          0          0          1                    
VS_22-37a        CIRCULAR     0.7              0          0          0          1                    
B124-B123        CIRCULAR     0.2              0          0          0          1                    
B123-B122        CIRCULAR     0.2              0          0          0          1                    
B121-B122        CIRCULAR     0.3              0          0          0          1                    
B121-B105        CIRCULAR     03               0          0          0          1                    
B106-B105        CIRCULAR     0.25             0          0          0          1                    
B107-B106        CIRCULAR     0.25             0          0          0          1                    
B105-B104        CIRCULAR     0.35             0          0          0          1                    
B104-B103        CIRCULAR     0.45             0          0          0          1                    
203              CIRCULAR     0.25             0          0          0          1                    
B103-B102        CIRCULAR     0.5              0          0          0          1                    
B102-B101        CIRCULAR     0.5              0          0          0          1                    
B101-B53         CIRCULAR     0.5              0          0          0          1                    
B63-B62          CIRCULAR     0.3              0          0          0          1                    
B62-B61          CIRCULAR     0.3              0          0          0          1                    
B61-B60          CIRCULAR     0.35             0          0          0          1                    
B60-B59          CIRCULAR     0.35             0          0          0          1                    
B59-B58          CIRCULAR     0.35             0          0          0          1                    
B58-B57          CIRCULAR     0.4              0          0          0          1                    
B57-B56          CIRCULAR     0.4              0          0          0          1                    
B56-B55          CIRCULAR     0.4              0          0          0          1                    
B55-B54          CIRCULAR     0.4              0          0          0          1                    
B54-B53          CIRCULAR     0.4              0          0          0          1                    
B53-B52          CIRCULAR     0.7              0          0          0          1                    
B52-B51          CIRCULAR     0.7              0          0          0          1                    
B51-B3           CIRCULAR     0.7              0          0          0          1                    
B111-B57         CIRCULAR     0.25             0          0          0          1                    
B74-B73          CIRCULAR     0.25             0          0          0          1                    
B73-B72          CIRCULAR     0.25             0          0          0          1                    
B72-B71          CIRCULAR     0.3              0          0          0          1                    
B71-B61          CIRCULAR     0.3              0          0          0          1                    
B86-B85          CIRCULAR     0.25             0          0          0          1                    
B85-B84          CIRCULAR     0.25             0          0          0          1                    
B84-B83          CIRCULAR     0.25             0          0          0          1                    
B83-B82          CIRCULAR     0.25             0          0          0          1                    
B82-B81          CIRCULAR     0.3              0          0          0          1                    
B81-B58          CIRCULAR     0.3              0          0          0          1                    
B95-B94          CIRCULAR     0.2              0          0          0          1                    
B94-B93          CIRCULAR     0.25             0          0          0          1                    
B93-B92          CIRCULAR     0.25             0          0          0          1                    
B92-B91          CIRCULAR     0.25             0          0          0          1                    
B91-B82          CIRCULAR     0.25             0          0          0          1                    
B13-B12          CIRCULAR     0.2              0          0          0          1                    
B12-B11          CIRCULAR     0.2              0          0          0          1                    
B11-B10          CIRCULAR     0.2              0          0          0          1                    
B9-B10           CIRCULAR     0.25             0          0          0          1                    
B9-B8.1          CIRCULAR     0.25             0          0          0          1                    
B22-B21          CIRCULAR     0.25             0          0          0          1                    
B21-B6           CIRCULAR     0.25             0          0          0          1                    
B31-B8           CIRCULAR     0.2              0          0          0          1                    
B43-B42          CIRCULAR     0.25             0          0          0          1                    
B42-B40          CIRCULAR     0.25             0          0          0          1                    
B41-B8.1         CIRCULAR     0.25             0          0          0          1                    
B8.1-B8          CIRCULAR     0.25             0          0          0          1                    
B8-B7            CIRCULAR     0.25             0          0          0          1                    
B7-B6            CIRCULAR     0.25             0          0          0          1                    
B6-B5            CIRCULAR     0.3              0          0          0          1                    
B5-B4            CIRCULAR     0.35             0          0          0          1                    
B4-B3            CIRCULAR     0.35             0          0          0          1                    
B3-B2            CIRCULAR     0.7              0          0          0          1                    
B2-RÜB_Kronentobel CIRCULAR     0.7              0          0          0          1                    
B181-B171        CIRCULAR     0.2              0          0          0          1                    
B173-B172        CIRCULAR     0.25             0          0          0          1                    
B172-B171        CIRCULAR     0.3              0          0          0          1                    
B171-B137        CIRCULAR     0.3              0          0          0          1                    
B161-B136        CIRCULAR     0.2              0          0          0          1                    
B153-B152        CIRCULAR     0.2              0          0          0          1                    
B152-B151        CIRCULAR     0.25             0          0          0          1                    
B15-B152B133     CIRCULAR     0.25             0          0          0          1                    
B205-B204        CIRCULAR     0.15             0          0          0          1                    
B204-B203        CIRCULAR     0.2              0          0          0          1                    
B203-B202        CIRCULAR     0.2              0          0          0          1                    
B202-B201        CIRCULAR     0.25             0          0          0          1                    
B201-B131        CIRCULAR     0.25             0          0          0          1                    
B143-B142        CIRCULAR     0.2              0          0          0          1                    
B142-B141        CIRCULAR     0.25             0          0          0          1                    
B141-B140        CIRCULAR     0.3              0          0          0          1                    
B140-B139        CIRCULAR     0.3              0          0          0          1                    
B139-B138        CIRCULAR     0.3              0          0          0          1                    
B138-B137        CIRCULAR     0.3              0          0          0          1                    
B137-B136        CIRCULAR     0.35             0          0          0          1                    
B136-B135        CIRCULAR     0.4              0          0          0          1                    
B135-134         CIRCULAR     0.4              0          0          0          1                    
B134-B133        CIRCULAR     0.5              0          0          0          1                    
B133-B132        CIRCULAR     0.6              0          0          0          1                    
B132-B131        CIRCULAR     0.6              0          0          0          1                    
B131-B2          CIRCULAR     0.6              0          0          0          1                    
B139R-B138R      CIRCULAR     0.2              0          0          0          1                    
B138R-B136R      CIRCULAR     0.2              0          0          0          1                    
B136R-B135R      CIRCULAR     0.2              0          0          0          1                    
B135R-B134R      CIRCULAR     0.25             0          0          0          1                    
B134R-B1343      CIRCULAR     0.3              0          0          0          1                    
B133R-B214R      CIRCULAR     0.35             0          0          0          1                    
B215R-B214R      CIRCULAR     0.8              0          0          0          1                    
B214R-B213R      CIRCULAR     0.9              0          0          0          1                    
B213R-B212R      CIRCULAR     .9               0          0          0          1                    
B212R-Outfall_Chronentobelbach CIRCULAR     0.9              0          0          0          1                    
C54-C53          CIRCULAR     0.2              0          0          0          1                    
C53-C52          CIRCULAR     0.2              0          0          0          1                    
C61-C4           CIRCULAR     0.2              0          0          0          1                    
C72-C71          CIRCULAR     0.25             0          0          0          1                    
C71-C37          CIRCULAR     0.25             0          0          0          1                    
C52-C51          CIRCULAR     0.2              0          0          0          1                    
C51-C6           CIRCULAR     0.2              0          0          0          1                    
C44-C43          CIRCULAR     0.2              0          0          0          1                    
C43-C42          CIRCULAR     0.25             0          0          0          1                    
C42-C41          CIRCULAR     0.25             0          0          0          1                    
C41-C40          CIRCULAR     0.25             0          0          0          1                    
C40-39           CIRCULAR     0.25             0          0          0          1                    
C39-C38          CIRCULAR     0.25             0          0          0          1                    
C38-C37          CIRCULAR     0.3              0          0          0          1                    
C37-C36          CIRCULAR     0.3              0          0          0          1                    
C36-C35          CIRCULAR     0.3              0          0          0          1                    
C35-C34          CIRCULAR     0.3              0          0          0          1                    
C34-C33          CIRCULAR     0.3              0          0          0          1                    
C33-C32          CIRCULAR     0.35             0          0          0          1                    
C32-C31          CIRCULAR     0.35             0          0          0          1                    
C31-C2           CIRCULAR     0.35             0          0          0          1                    
RÜB_Kronentobel-C11 CIRCULAR     0.4              0          0          0          1                    
C11-C10          CIRCULAR     0.4              0          0          0          1                    
C10-C9           CIRCULAR     0.35             0          0          0          1                    
C9-C8            CIRCULAR     0.35             0          0          0          1                    
C8-C7            CIRCULAR     0.35             0          0          0          1                    
C7-C6            CIRCULAR     0.35             0          0          0          1                    
C6-C5            CIRCULAR     0.35             0          0          0          1                    
C5-C4            CIRCULAR     0.4              0          0          0          1                    
C4-C3            CIRCULAR     0.4              0          0          0          1                    
C3-C2            CIRCULAR     0.5              0          0          0          1                    
C2-RÜB_Berggasse CIRCULAR     0.5              0          0          0          1                    
C25R-C24R        CIRCULAR     0.25             0          0          0          1                    
C24R-C23R        CIRCULAR     0.25             0          0          0          1                    
C23R-C22R        CIRCULAR     0.3              0          0          0          1                    
C22R-C61         CIRCULAR     0.25             0          0          0          1                    
C55R-C54R        CIRCULAR     0.25             0          0          0          1                    
C54R-C53R        CIRCULAR     0.25             0          0          0          1                    
C53R-C52R        CIRCULAR     0.28             0          0          0          1                    
C52R-C51R        CIRCULAR     0.25             0          0          0          1                    
C51R-C38R        CIRCULAR     0.25             0          0          0          1                    
C41R-C40R        CIRCULAR     0.25             0          0          0          1                    
C40R-C39R        CIRCULAR     0.25             0          0          0          1                    
C39R-C38R        CIRCULAR     0.25             0          0          0          1                    
C38R-C37R        CIRCULAR     0.3              0          0          0          1                    
C37R-C36R        CIRCULAR     0.3              0          0          0          1                    
C36R-C35R        CIRCULAR     0.3              0          0          0          1                    
C35R-C34R        CIRCULAR     0.3              0          0          0          1                    
C34R-C33R        CIRCULAR     0.3              0          0          0          1                    
C33R-C32R        CIRCULAR     0.3              0          0          0          1                    
C32R-C31R        CIRCULAR     0.4              0          0          0          1                    
C31R-Outfall_R_Dorfbach CIRCULAR     0.4              0          0          0          1                    
D121-D92         CIRCULAR     0.15             0          0          0          1                    
D114-113         CIRCULAR     0.15             0          0          0          1                    
D113-D112        CIRCULAR     0.2              0          0          0          1                    
D112-D111        CIRCULAR     0.2              0          0          0          1                    
D111-D92         CIRCULAR     0.2              0          0          0          1                    
D96-D95          CIRCULAR     0.15             0          0          0          1                    
D101-D95         CIRCULAR     0.15             0          0          0          1                    
D95-D94          CIRCULAR     0.2              0          0          0          1                    
D94-D93          CIRCULAR     0.2              0          0          0          1                    
D93-D92          CIRCULAR     0.2              0          0          0          1                    
D92-D91          CIRCULAR     0.2              0          0          0          1                    
D91-D32          CIRCULAR     0.2              0          0          0          1                    
D89-D88          CIRCULAR     0.3              0          0          0          1                    
D88-D87          CIRCULAR     0.35             0          0          0          1                    
D87-D86          CIRCULAR     0.35             0          0          0          1                    
D86-D85          CIRCULAR     0.4              0          0          0          1                    
D85-D84          CIRCULAR     0.4              0          0          0          1                    
D84-D83          CIRCULAR     0.45             0          0          0          1                    
D83-D82          CIRCULAR     0.45             0          0          0          1                    
D82-D81          CIRCULAR     0.45             0          0          0          1                    
D81-D34          CIRCULAR     0.45             0          0          0          1                    
D71-D63          CIRCULAR     0.2              0          0          0          1                    
D66-D65          CIRCULAR     0.2              0          0          0          1                    
D65-D64          CIRCULAR     0.2              0          0          0          1                    
D64-D63          CIRCULAR     0.25             0          0          0          1                    
D63-D62          CIRCULAR     0.25             0          0          0          1                    
D62-D61          CIRCULAR     0.25             0          0          0          1                    
D61-D39          CIRCULAR     0.3              0          0          0          1                    
D54-D53          CIRCULAR     0.2              0          0          0          1                    
D53-D52          CIRCULAR     0.2              0          0          0          1                    
D52-D51          CIRCULAR     0.3              0          0          0          1                    
D51-D38          CIRCULAR     0.3              0          0          0          1                    
D38-D37          CIRCULAR     0.4              0          0          0          1                    
D37-D36          CIRCULAR     0.4              0          0          0          1                    
D36-D35          CIRCULAR     0.4              0          0          0          1                    
D35-D34          CIRCULAR     0.45             0          0          0          1                    
D34-D33          CIRCULAR     0.5              0          0          0          1                    
D33-D32          CIRCULAR     0.5              0          0          0          1                    
D32-D31          CIRCULAR     0.6              0          0          0          1                    
D31-D4           CIRCULAR     0.6              0          0          0          1                    
D42-D41          CIRCULAR     0.25             0          0          0          1                    
D41-D40          CIRCULAR     0.3              0          0          0          1                    
D40-D39          CIRCULAR     0.3              0          0          0          1                    
D39-D38          CIRCULAR     0.4              0          0          0          1                    
D24-D23          CIRCULAR     0.3              0          0          0          1                    
D23-D22          CIRCULAR     0.3              0          0          0          1                    
D22-D21          CIRCULAR     0.3              0          0          0          1                    
D21-D6           CIRCULAR     0.3              0          0          0          1                    
D11-D10          CIRCULAR     0.25             0          0          0          1                    
D10-D9           CIRCULAR     0.3              0          0          0          1                    
D9-D8            CIRCULAR     0.3              0          0          0          1                    
D8-D7            CIRCULAR     0.3              0          0          0          1                    
D7-D6            CIRCULAR     0.3              0          0          0          1                    
D6-D5            CIRCULAR     0.3              0          0          0          1                    
D5-D4            CIRCULAR     0.3              0          0          0          1                    
D4-D3            CIRCULAR     0.7              0          0          0          1                    
D3-D2            CIRCULAR     0.7              0          0          0          1                    
D2-RÜ_Poststrasse CIRCULAR     0.7              0          0          0          1                    
D151R-D133R      CIRCULAR     0.7              0          0          0          1                    
D137R-D136R      CIRCULAR     0.4              0          0          0          1                    
D136R-D135R      CIRCULAR     0.5              0          0          0          1                    
D135R-D134R      CIRCULAR     0.6              0          0          0          1                    
D134R-D133R      CIRCULAR     0.6              0          0          0          1                    
D133R-D132R      CIRCULAR     0.7              0          0          0          1                    
D132R-D131R      CIRCULAR     0.7              0          0          0          1                    
D131R-D4R        CIRCULAR     0.7              0          0          0          1                    
D96R-D94R        CIRCULAR     0.25             0          0          0          1                    
D121R-D92R       CIRCULAR     0.25             0          0          0          1                    
D114R-D113R      CIRCULAR     0.25             0          0          0          1                    
D113R-D112R      CIRCULAR     0.3              0          0          0          1                    
D112R-D111R      CIRCULAR     0.3              0          0          0          1                    
D111R-D92R       CIRCULAR     0.3              0          0          0          1                    
D92R-D91R        CIRCULAR     0.4              0          0          0          1                    
D91R-D90R        CIRCULAR     0.45             0          0          0          1                    
D90R-D30R        CIRCULAR     0.6              0          0          0          1                    
D32R-D31R        CIRCULAR     0.6              0          0          0          1                    
D31R-D30R        CIRCULAR     0.6              0          0          0          1                    
D30R-D4R         CIRCULAR     0.6              0          0          0          1                    
D101R-D95R       CIRCULAR     0.3              0          0          0          1                    
D95R-D94R        CIRCULAR     0.3              0          0          0          1                    
D94R-D141R       CIRCULAR     0.4              0          0          0          1                    
D141R-D133R      CIRCULAR     0.4              0          0          0          1                    
F231-F210        CIRCULAR     0.15             0          0          0          1                    
F222-F221        CIRCULAR     0.15             0          0          0          1                    
F221-F208        CIRCULAR     0.15             0          0          0          1                    
F212-F211        CIRCULAR     0.15             0          0          0          1                    
F211-F210        CIRCULAR     0.15             0          0          0          1                    
F210-F209        CIRCULAR     0.15             0          0          0          1                    
F209-F208        CIRCULAR     0.15             0          0          0          1                    
F208-F207        CIRCULAR     0.15             0          0          0          1                    
F207-F206        CIRCULAR     0.15             0          0          0          1                    
F206-F205        CIRCULAR     0.2              0          0          0          1                    
F163-F162        CIRCULAR     0.15             0          0          0          1                    
F134-F133        CIRCULAR     0.15             0          0          0          1                    
F135-F134        CIRCULAR     0.15             0          0          0          1                    
F133-F132        CIRCULAR     0.15             0          0          0          1                    
F132-F131        CIRCULAR     0.15             0          0          0          1                    
F131-F111        CIRCULAR     0.15             0          0          0          1                    
F123-F122        CIRCULAR     0.15             0          0          0          1                    
F122-F121        CIRCULAR     0.15             0          0          0          1                    
F121-F120        CIRCULAR     0.15             0          0          0          1                    
F120-F119        CIRCULAR     0.15             0          0          0          1                    
F119-F118        CIRCULAR     0.15             0          0          0          1                    
F118-F117        CIRCULAR     0.15             0          0          0          1                    
F117-F116        CIRCULAR     0.15             0          0          0          1                    
F116-F115        CIRCULAR     0.15             0          0          0          1                    
F115-F114        CIRCULAR     0.15             0          0          0          1                    
F114-F113        CIRCULAR     0.15             0          0          0          1                    
F113-F112        CIRCULAR     0.15             0          0          0          1                    
F112-F111        CIRCULAR     0.15             0          0          0          1                    
F111-F110        CIRCULAR     0.15             0          0          0          1                    
F110-F109        CIRCULAR     0.15             0          0          0          1                    
F109-F108        CIRCULAR     0.15             0          0          0          1                    
F108-F107        CIRCULAR     0.15             0          0          0          1                    
F107-F106        CIRCULAR     0.15             0          0          0          1                    
F106-F105        CIRCULAR     0.15             0          0          0          1                    
F105-F104        CIRCULAR     0.15             0          0          0          1                    
F104-F103        CIRCULAR     0.15             0          0          0          1                    
F103-F102        CIRCULAR     0.15             0          0          0          1                    
F102-F101        CIRCULAR     0.15             0          0          0          1                    
F52-F51          CIRCULAR     0.25             0          0          0          1                    
F51-F50          CIRCULAR     0.25             0          0          0          1                    
RÜ_Poststrasse-F257 CIRCULAR     0.35             0          0          0          1                    
F257-F256        CIRCULAR     0.4              0          0          0          1                    
F256-RÜB_Berggasse CIRCULAR     0.4              0          0          0          1                    
RÜB_Berggasse-F251 CIRCULAR     0.45             0          0          0          1                    
F251-F250        CIRCULAR     0.4              0          0          0          1                    
F250-F249        CIRCULAR     0.45             0          0          0          1                    
F249-F248        CIRCULAR     0.45             0          0          0          1                    
F248-F247        CIRCULAR     0.45             0          0          0          1                    
F247-F246        CIRCULAR     0.45             0          0          0          1                    
F246-F245        CIRCULAR     0.45             0          0          0          1                    
F245-F244        CIRCULAR     0.45             0          0          0          1                    
F244-F243        CIRCULAR     0.45             0          0          0          1                    
F243-F242        CIRCULAR     0.45             0          0          0          1                    
F242-F241        CIRCULAR     0.45             0          0          0          1                    
F241-F3          CIRCULAR     0.45             0          0          0          1                    
F255-F254        CIRCULAR     0.2              0          0          0          1                    
F254-F253        CIRCULAR     0.25             0          0          0          1                    
F253-F251        CIRCULAR     0.25             0          0          0          1                    
F205-F204        CIRCULAR     0.2              0          0          0          1                    
F204-F203        CIRCULAR     0.2              0          0          0          1                    
F203-F202        CIRCULAR     0.25             0          0          0          1                    
F202-F201        CIRCULAR     0.25             0          0          0          1                    
F201-F21         CIRCULAR     0.25             0          0          0          1                    
F192-F191        CIRCULAR     0.15             0          0          0          1                    
F191-F182        CIRCULAR     0.15             0          0          0          1                    
F185-F184        CIRCULAR     0.25             0          0          0          1                    
F184-F183        CIRCULAR     0.25             0          0          0          1                    
F183-F182        CIRCULAR     0.25             0          0          0          1                    
F182-F181        CIRCULAR     0.3              0          0          0          1                    
F182-F94         CIRCULAR     0.3              0          0          0          1                    
F162-F161        CIRCULAR     0.3              0          0          0          1                    
F161-F83         CIRCULAR     0.4              0          0          0          1                    
F154-F153        CIRCULAR     0.2              0          0          0          1                    
F152-F153        CIRCULAR     0.25             0          0          0          1                    
F152-F151        CIRCULAR     0.25             0          0          0          1                    
F151-F88         CIRCULAR     0.25             0          0          0          1                    
F146-F145        CIRCULAR     0.4              0          0          0          1                    
F145-F144        CIRCULAR     0.2              0          0          0          1                    
F144-F143        CIRCULAR     0.25             0          0          0          1                    
F143-F142        CIRCULAR     0.4              0          0          0          1                    
F142-F141        CIRCULAR     0.45             0          0          0          1                    
F141-F83         CIRCULAR     0.45             0          0          0          1                    
F101-F95         CIRCULAR     0.25             0          0          0          1                    
F95-F94          CIRCULAR     0.3              0          0          0          1                    
F94-F93          CIRCULAR     0.35             0          0          0          1                    
F93-F92          CIRCULAR     0.35             0          0          0          1                    
F92-F91          CIRCULAR     0.4              0          0          0          1                    
F91-F90          CIRCULAR     0.4              0          0          0          1                    
F90-F89          CIRCULAR     0.4              0          0          0          1                    
F89-F88          CIRCULAR     0.4              0          0          0          1                    
F88-F87          CIRCULAR     0.4              0          0          0          1                    
F87-F86          CIRCULAR     0.5              0          0          0          1                    
F86-F82          CIRCULAR     0.6              0          0          0          1                    
F85-F84          CIRCULAR     0.6              0          0          0          1                    
F84-F83          CIRCULAR     0.6              0          0          0          1                    
F83-F82          CIRCULAR     0.3              0          0          0          1                    
F82-F81          CIRCULAR     0.6              0          0          0          1                    
F81-F11          CIRCULAR     0.6              0          0          0          1                    
F71-F64          CIRCULAR     0.3              0          0          0          1                    
F65-F64          CIRCULAR     0.4              0          0          0          1                    
F64-F63          CIRCULAR     0.4              0          0          0          1                    
F63-F62          CIRCULAR     0.4              0          0          0          1                    
F62-F61          CIRCULAR     0.5              0          0          0          1                    
F61-F6           CIRCULAR     0.5              0          0          0          1                    
F42-F41          CIRCULAR     0.2              0          0          0          1                    
F41-F25          CIRCULAR     0.2              0          0          0          1                    
F32-F31          CIRCULAR     0.2              0          0          0          1                    
F31-F24          CIRCULAR     0.2              0          0          0          1                    
RÜB_Wilhof-F177  CIRCULAR     0.8              0          0          0          1                    
F177-F176        CIRCULAR     0.8              0          0          0          1                    
F176-F175        CIRCULAR     0.8              0          0          0          1                    
F175-F174        CIRCULAR     0.8              0          0          0          1                    
F174-F173        CIRCULAR     0.45             0          0          0          1                    
F173-F172        CIRCULAR     0.45             0          0          0          1                    
F172-F171        CIRCULAR     0.45             0          0          0          1                    
F171-F11         CIRCULAR     0.6              0          0          0          1                    
F27-F26          CIRCULAR     0.2              0          0          0          1                    
F26-F25          CIRCULAR     0.25             0          0          0          1                    
F25-F24          CIRCULAR     0.25             0          0          0          1                    
F24-F23          CIRCULAR     0.25             0          0          0          1                    
F23-F22          CIRCULAR     0.3              0          0          0          1                    
F22-F21          CIRCULAR     0.3              0          0          0          1                    
F21-F20          CIRCULAR     0.3              0          0          0          1                    
F20-F19          CIRCULAR     0.3              0          0          0          1                    
F19-F18          CIRCULAR     0.4              0          0          0          1                    
F18-F17          CIRCULAR     0.5              0          0          0          1                    
F17-F16          CIRCULAR     0.5              0          0          0          1                    
F15-F15          CIRCULAR     0.5              0          0          0          1                    
F15-F14          CIRCULAR     0.5              0          0          0          1                    
F14-F13          CIRCULAR     0.6              0          0          0          1                    
F13-F11          CIRCULAR     0.6              0          0          0          1                    
F11-F10          CIRCULAR     1                0          0          0          1                    
F10-F9           CIRCULAR     0.8              0          0          0          1                    
F9-F8            CIRCULAR     0.8              0          0          0          1                    
F8-F7            CIRCULAR     0.8              0          0          0          1                    
F7-F6            CIRCULAR     0.8              0          0          0          1                    
F6-F5            CIRCULAR     1.1              0          0          0          1                    
F5-F4            CIRCULAR     1.1              0          0          0          1                    
F4-F3            CIRCULAR     0.6              0          0          0          1                    
F3-F2            CIRCULAR     0.8              0          0          0          1                    
F2-RÜB_Morgental CIRCULAR     1                0          0          0          1                    
F231R-F210R      CIRCULAR     0.15             0          0          0          1                    
F222R-F221R      CIRCULAR     0.15             0          0          0          1                    
F221R-F208R      CIRCULAR     0.2              0          0          0          1                    
F212R-F211R      CIRCULAR     0.2              0          0          0          1                    
F211R-F210R      CIRCULAR     0.2              0          0          0          1                    
F210R-F209R      CIRCULAR     0.3              0          0          0          1                    
F209R-F208R      CIRCULAR     0.3              0          0          0          1                    
F208R-F207R      CIRCULAR     0.3              0          0          0          1                    
F86R-F85R        CIRCULAR     0.15             0          0          0          1                    
F85R-F84R        CIRCULAR     0.15             0          0          0          1                    
F84R-F83R        CIRCULAR     0.15             0          0          0          1                    
F83R-F82R        CIRCULAR     0.15             0          0          0          1                    
F82R-F81R        CIRCULAR     0.4              0          0          0          1                    
F81R-F69R        CIRCULAR     0.4              0          0          0          1                    
F69R-F68R        CIRCULAR     0.35             0          0          0          1                    
F68R-F67R        CIRCULAR     0.45             0          0          0          1                    
F67R-F66R        CIRCULAR     0.45             0          0          0          1                    
F66R-F65R        CIRCULAR     0.45             0          0          0          1                    
F65R-F64R        CIRCULAR     0.45             0          0          0          1                    
F64R-F63R        CIRCULAR     0.5              0          0          0          1                    
F71R-F64R        CIRCULAR     0.35             0          0          0          1                    
F52R-F51R        CIRCULAR     1                0          0          0          1                    
F51R-F69R        CIRCULAR     0.3              0          0          0          1                    
E94-E93          CIRCULAR     0.15             0          0          0          1                    
E93-E92          CIRCULAR     0.15             0          0          0          1                    
E92-E91          CIRCULAR     0.2              0          0          0          1                    
E91-E82          CIRCULAR     0.25             0          0          0          1                    
E86-E85          CIRCULAR     0.35             0          0          0          1                    
E85-E84          CIRCULAR     0.35             0          0          0          1                    
E84-E83          CIRCULAR     0.35             0          0          0          1                    
E83-E82          CIRCULAR     0.35             0          0          0          1                    
E81-E81          CIRCULAR     0.4              0          0          0          1                    
E81-E65          CIRCULAR     0.4              0          0          0          1                    
E76-E75          CIRCULAR     0.2              0          0          0          1                    
E75-E74          CIRCULAR     0.2              0          0          0          1                    
E74-E73          CIRCULAR     0.25             0          0          0          1                    
E73-E71          CIRCULAR     0.25             0          0          0          1                    
E71-E70          CIRCULAR     0.25             0          0          0          1                    
E70-E69          CIRCULAR     0.35             0          0          0          1                    
E69-E68          CIRCULAR     0.35             0          0          0          1                    
E68-E67          CIRCULAR     0.35             0          0          0          1                    
E67-E66          CIRCULAR     0.35             0          0          0          1                    
E66-E65          CIRCULAR     0.35             0          0          0          1                    
E65-E64          CIRCULAR     0.45             0          0          0          1                    
E64-E63          CIRCULAR     0.45             0          0          0          1                    
E63-E62          CIRCULAR     0.5              0          0          0          1                    
E62-E61          CIRCULAR     0.5              0          0          0          1                    
E61-E7           CIRCULAR     0.6              0          0          0          1                    
E51-E45          CIRCULAR     0.2              0          0          0          1                    
E49-E48          CIRCULAR     0.15             0          0          0          1                    
E48-E47          CIRCULAR     0.2              0          0          0          1                    
E47-E46          CIRCULAR     0.2              0          0          0          1                    
E46-E45          CIRCULAR     0.2              0          0          0          1                    
E45-E44          CIRCULAR     0.25             0          0          0          1                    
E44-E41          CIRCULAR     0.25             0          0          0          1                    
E41-RÜB_Wilhof   CIRCULAR     0.3              0          0          0          1                    
E18-E17          CIRCULAR     0.15             0          0          0          1                    
E17-E16          CIRCULAR     0.15             0          0          0          1                    
E16-E15          CIRCULAR     0.25             0          0          0          1                    
E15-E14          CIRCULAR     0.25             0          0          0          1                    
E14-E13          CIRCULAR     0.25             0          0          0          1                    
E13-E12          CIRCULAR     1.1              0          0          0          1                    
E12-E11          CIRCULAR     1.1              0          0          0          1                    
E11-E10          CIRCULAR     1.1              0          0          0          1                    
E10-E9           CIRCULAR     1.1              0          0          0          1                    
E9-E8            CIRCULAR     1.1              0          0          0          1                    
E8-E7            CIRCULAR     1.1              0          0          0          1                    
E7-E6            CIRCULAR     1.1              0          0          0          1                    
E6-E5            CIRCULAR     1.1              0          0          0          1                    
E5-E4            CIRCULAR     1.1              0          0          0          1                    
E4-E3            CIRCULAR     1.1              0          0          0          1                    
E3-E2            CIRCULAR     1.25             0          0          0          1                    
E2-RÜB_Wilhof    CIRCULAR     1.25             0          0          0          1                    
10-10a           CIRCULAR     0.35             0          0          0          1                    
10a-10b          CIRCULAR     0.35             0          0          0          1                    
10b-10c          CIRCULAR     0.4              0          0          0          1                    
10c-11           CIRCULAR     0.4              0          0          0          1                    
11-11a           CIRCULAR     0.4              0          0          0          1                    
11a-11b          CIRCULAR     0.4              0          0          0          1                    
11b-11c          CIRCULAR     0.4              0          0          0          1                    
11c-11d          CIRCULAR     0.4              0          0          0          1                    
2c-2d            CIRCULAR     0.3              0          0          0          1                    
2d-2e            CIRCULAR     0.3              0          0          0          1                    
2e-2f            CIRCULAR     0.3              0          0          0          1                    
2f-10            CIRCULAR     0.35             0          0          0          1                    
411-412          CIRCULAR     0.3              0          0          0          1                    
412-413          CIRCULAR     0.3              0          0          0          1                    
413-414          CIRCULAR     0.3              0          0          0          1                    
414-415          CIRCULAR     0.3              0          0          0          1                    
415-416          CIRCULAR     0.3              0          0          0          1                    
416-11b          CIRCULAR     0.3              0          0          0          1                    
RKB_Morgenthal_throttle CIRCULAR     0.3              0          0          0          1                    
FK_102           RECT_OPEN    1                6          0          0         
RÜ_48a           RECT_OPEN    1                0.9        0          0         
RÜ40a_Kempttalstrasse RECT_OPEN    1                4          0          0         
RÜB_59_A         RECT_OPEN    1                9.5        0          0         
RÜB_59_E         RECT_OPEN    1                9.5        0          0         
RÜB_Industrie    RECT_OPEN    1                8          0          0         
RÜB_Usterstrasse_A RECT_OPEN    1                9          0          0         
RÜB_Usterstrasse_E RECT_OPEN    1                9          0          0         
ÜS_58            RECT_OPEN    1                4          0          0         
ÜS_596           RECT_OPEN    1                5.2        0          0         
ÜS_597           RECT_OPEN    1                4.6        0          0         
ÜS_ARA           RECT_OPEN    1                3.1        0          0         
Weir_Kronentobel RECT_OPEN    1                3          0          0         
Weir_Dorfbach    RECT_OPEN    0.5              3          0          0         
RÜB_Berggasse-Outfall_RÜB_D RECT_OPEN    1                3          0          0         
2                RECT_OPEN    1                1          0          0         
Weir_CSOmorgental RECT_OPEN    2                6          0          0         
Weir_RUBmorgental_inflow RECT_OPEN    1                5          0          0         

[LOSSES]
;;Link           Kentry     Kexit      Kavg       Flap Gate  Seepage   
;;-------------- ---------- ---------- ---------- ---------- ----------
805-80.1         0          0          0          YES        0         
Link_4           0          0          0          YES        0         

[CONTROLS]
;;Control Rules
;;Control Rules
;;Control Rules
;;Control Rules
;;Control Rules
;;Control Rules
;;Control Rules
;;Control Rules
RULE Pumpe_PW80_Industrie_OFF
IF LINK Link_2 FLOW > 160
THEN PUMP PW80_Industrie STATUS = OFF

RULE Entleerungspumpe_FB_ARA_ON
IF NODE FB_ARA DEPTH > 0.25
AND LINK Link_2 FLOW < 160
THEN PUMP EntleerungspumpeFBARA STATUS = ON

RULE Entleerungspumpe_RB_59_ON
IF NODE RB_59 DEPTH > 0.4
AND LINK Link_2 FLOW < 170
THEN PUMP EntleerungspumpeRB59 STATUS = ON

RULE Entleerungspumpe_Usterstrasse_ON
IF NODE RÜB_Usterstrasse DEPTH > 0.7
AND LINK HAL157 FLOW < 95
THEN PUMP EntleerungspumpeRÜBUsterstrasse STATUS = ON







[LANDUSES]
;;               Sweeping   Fraction   Last      
;;Name           Interval   Available  Swept     
;;-------------- ---------- ---------- ----------
Strasse          0          0          0         

[COVERAGES]
;;Subcatchment   Land Use         Percent   
;;-------------- ---------------- ----------
A0005RT          Strasse          30        
A0010RT          Strasse          30        
A0015RT          Strasse          30        
A0020RT          Strasse          30        
A0025RT          Strasse          30        
A0030RT          Strasse          30        
A0035RT          Strasse          30        
A0040RT          Strasse          30        
A0045RT          Strasse          30        
A0065RT          Strasse          30        
A0070RT          Strasse          30        
A0075RT          Strasse          30        
A0080RT          Strasse          30        
A0085RT          Strasse          30        
A0090RT          Strasse          30        
A0095RT          Strasse          30        
A0100RT          Strasse          30        
A0105RT          Strasse          30        
A0110RT          Strasse          30        
A0115RT          Strasse          30        
A0120RT          Strasse          30        
A0125RT          Strasse          30        
A0130RT          Strasse          30        
A0135RT          Strasse          30        
A0140RT          Strasse          30        
A0145RT          Strasse          30        
A0150RT          Strasse          30        
A0155RT          Strasse          30        
A0160RT          Strasse          30        
A0165RT          Strasse          30        
B0005RT          Strasse          30        
B0010RT          Strasse          30        
B0015RT          Strasse          30        
B0016RT          Strasse          30        
B0020RT          Strasse          30        
B0025RT          Strasse          30        
B0030RT          Strasse          30        
B0035RT          Strasse          30        
B0040RT          Strasse          30        
B0045RT          Strasse          30        
B0050RT          Strasse          30        
B0055RT          Strasse          30        
B0060RT          Strasse          30        
B0065RT          Strasse          30        
B0066RT          Strasse          30        
B0070RT          Strasse          30        
B0075RT          Strasse          30        
B0080RT          Strasse          30        
B0085RT          Strasse          30        
B0090RT          Strasse          30        
B0095RT          Strasse          30        
B0100RT          Strasse          30        
B0105RT          Strasse          30        
B0110RT          Strasse          30        
B0115RT          Strasse          30        
B0120RT          Strasse          30        
B0125RT          Strasse          30        
B0126RT          Strasse          30        
B0130RT          Strasse          30        
B0135RT          Strasse          30        
B0140RT          Strasse          30        
B0145RT          Strasse          30        
B0146RT          Strasse          30        
B0150RT          Strasse          30        
B0155RT          Strasse          30        
B0160RT          Strasse          30        
B0161RT          Strasse          30        
B0165RT          Strasse          30        
B0170RT          Strasse          30        
B0175RT          Strasse          30        
B0180RT          Strasse          30        
B0181RT          Strasse          30        
B0182RT          Strasse          30        
B0185RT          Strasse          30        
B0186RT          Strasse          30        
B0190RT          Strasse          30        
B0195RT          Strasse          30        
B0200RT          Strasse          30        
B0205RT          Strasse          30        
B0210RT          Strasse          30        
B0215RT          Strasse          30        
B0220RT          Strasse          30        
B0225RT          Strasse          30        
B0226RT          Strasse          30        
B0227RT          Strasse          30        
B0230RT          Strasse          30        
B0235RT          Strasse          30        
B0245RT          Strasse          30        
B0255RT          Strasse          30        
B0260RT          Strasse          30        
B0265RT          Strasse          30        
B0280RT          Strasse          30        
B0290RT          Strasse          30        
B0295RT          Strasse          30        
B0300RT          Strasse          30        
B0305RT          Strasse          30        
B0310RT          Strasse          30        
B0315RT          Strasse          30        
B0320RT          Strasse          30        
B0325RT          Strasse          30        
B0330RT          Strasse          30        
B0335RT          Strasse          30        
B0340RT          Strasse          30        
B0345RT          Strasse          30        
B0350RT          Strasse          30        
B0355RT          Strasse          30        
B0360RT          Strasse          30        
B0365RT          Strasse          30        
B0370RT          Strasse          30        
B0375RT          Strasse          30        
B0380RT          Strasse          30        
B0390RT          Strasse          30        
B0405RT          Strasse          30        
B0415RT          Strasse          30        
B0440RT          Strasse          30        
B0460R           Strasse          30        
B0465R           Strasse          30        
B0470R           Strasse          30        
B0475R           Strasse          30        
B0480R           Strasse          30        
B0490R           Strasse          30        
B0520RT          Strasse          30        
C0010RT          Strasse          30        
C0020RT          Strasse          30        
C0040RT          Strasse          30        
C0050RT          Strasse          30        
C0055RT          Strasse          30        
C0060RT          Strasse          30        
C0065RT          Strasse          30        
C0066RT          Strasse          30        
C0070RT          Strasse          30        
C0075RT          Strasse          30        
C0080RT          Strasse          30        
C0081RT          Strasse          30        
C0085RT          Strasse          30        
C0120RT          Strasse          30        
C0125RT          Strasse          30        
C0130RT          Strasse          30        
C0135RT          Strasse          30        
C0140RT          Strasse          30        
C0145RT          Strasse          30        
C0150RT          Strasse          30        
C0155RT          Strasse          30        
C0160RT          Strasse          30        
C0165RT          Strasse          30        
C0170RT          Strasse          30        
C0175RT          Strasse          30        
C0180RT          Strasse          30        
C0185RT          Strasse          30        
C0190RT          Strasse          30        
C0200RT          Strasse          30        
C0205RT          Strasse          30        
C0210RT          Strasse          30        
C0215RT          Strasse          30        
C0220RT          Strasse          30        
C0225RT          Strasse          30        
C0230RT          Strasse          30        
C0235RT          Strasse          30        
C0236RT          Strasse          30        
C0237RT          Strasse          30        
C0240RT          Strasse          30        
C0245RT          Strasse          30        
C0250RT          Strasse          30        
C0255RT          Strasse          30        
C0260RT          Strasse          30        
C0265RT          Strasse          30        
C0270RT          Strasse          30        
C0275RT          Strasse          30        
C0280RT          Strasse          30        
C0281RT          Strasse          30        
C0285RT          Strasse          30        
C0290RT          Strasse          30        
C0295RT          Strasse          30        
C0320RT          Strasse          30        
C0325RT          Strasse          30        
C0385R           Strasse          30        
C0390R           Strasse          30        
C0400R           Strasse          30        
C0425R           Strasse          30        
C0450R           Strasse          30        
C0455R           Strasse          30        
C0505R           Strasse          30        
C0550RT          Strasse          30        
D0040RT          Strasse          30        
D0045RT          Strasse          30        
D0050RT          Strasse          30        
D0055RT          Strasse          30        
D0060RT          Strasse          30        
D0065RT          Strasse          30        
D0105RT          Strasse          30        
D0110RT          Strasse          30        
D0115RT          Strasse          30        
D0120RT          Strasse          30        
D0125RT          Strasse          30        
D0140RT          Strasse          30        
D0145RT          Strasse          30        
D0150RT          Strasse          30        
D0405RT          Strasse          30        
E0010RT          Strasse          30        
E0015RT          Strasse          30        
E0020RT          Strasse          30        
E0030RT          Strasse          30        
E0035RT          Strasse          30        
E0040RT          Strasse          30        
E0045RT          Strasse          30        
E0050RT          Strasse          30        
E0055RT          Strasse          30        
E0060RT          Strasse          30        
E0070RT          Strasse          30        
E0085RT          Strasse          30        
E0090RT          Strasse          30        
E0095RT          Strasse          30        
E0135RT          Strasse          30        
E0145RT          Strasse          30        
E0150RT          Strasse          30        
E0155RT          Strasse          30        
E0160RT          Strasse          30        
E0165RT          Strasse          30        
E0170RT          Strasse          30        
E0175RT          Strasse          30        
E0180RT          Strasse          30        
E0190RT          Strasse          30        
F0005RT          Strasse          30        
F0010RT          Strasse          30        
F0015RT          Strasse          30        
F0020RT          Strasse          30        
F0025RT          Strasse          30        
F0030RT          Strasse          30        
F0035RT          Strasse          30        
F0040RT          Strasse          30        
F0045RT          Strasse          30        
F0050RT          Strasse          30        
F0055RT          Strasse          30        
F0060RT          Strasse          30        
F0065RT          Strasse          30        
F0070RT          Strasse          30        
F0075RT          Strasse          30        
F0080RT          Strasse          30        
F0085RT          Strasse          30        
F0090RT          Strasse          30        
F0095RT          Strasse          30        
F0105RT          Strasse          30        
F0110RT          Strasse          30        
F0120RT          Strasse          30        
F0125RT          Strasse          30        
Kempttalstrasse  Strasse          30        

[INFLOWS]
;;Node           Constituent      Time Series      Type     Mfactor  Sfactor  Baseline Pattern
;;-------------- ---------------- ---------------- -------- -------- -------- -------- --------
101              FLOW             ""               FLOW     1.0      1        0.020887379 groundwater_infiltration
102a             FLOW             ""               FLOW     1.0      1        0.025535557 groundwater_infiltration
102b             FLOW             ""               FLOW     1.0      1        0.012326496 groundwater_infiltration
102c             FLOW             ""               FLOW     1.0      1        0.010796716 groundwater_infiltration
102d             FLOW             ""               FLOW     1.0      1        0.01120858 groundwater_infiltration
102e             FLOW             ""               FLOW     1.0      1        0.013797438 groundwater_infiltration
102f             FLOW             ""               FLOW     1.0      1        0.024270546 groundwater_infiltration
102g             FLOW             ""               FLOW     1.0      1        0.011061485 groundwater_infiltration
102i             FLOW             ""               FLOW     1.0      1        0.035832152 groundwater_infiltration
102k             FLOW             ""               FLOW     1.0      1        0.013915113 groundwater_infiltration
104b             FLOW             ""               FLOW     1.0      1        0.022093552 groundwater_infiltration
104c             FLOW             ""               FLOW     1.0      1        0.012297077 groundwater_infiltration
104d             FLOW             ""               FLOW     1.0      1        0.006589821 groundwater_infiltration
105              FLOW             ""               FLOW     1.0      1        0.020122489 groundwater_infiltration
106              FLOW             ""               FLOW     1.0      1        0.022122971 groundwater_infiltration
1101             FLOW             ""               FLOW     1.0      1        0.008796234 groundwater_infiltration
1102             FLOW             ""               FLOW     1.0      1        0.00229467 groundwater_infiltration
1103             FLOW             ""               FLOW     1.0      1        0.014621166 groundwater_infiltration
1104             FLOW             ""               FLOW     1.0      1        0.002647696 groundwater_infiltration
1105             FLOW             ""               FLOW     1.0      1        0.009472868 groundwater_infiltration
1106             FLOW             ""               FLOW     1.0      1        0.007472386 groundwater_infiltration
113              FLOW             ""               FLOW     1.0      1        0.015209542 groundwater_infiltration
114              FLOW             ""               FLOW     1.0      1        0.015386055 groundwater_infiltration
115              FLOW             ""               FLOW     1.0      1        0.008266695 groundwater_infiltration
115a             FLOW             ""               FLOW     1.0      1        0.007737156 groundwater_infiltration
116              FLOW             ""               FLOW     1.0      1        0.015503731 groundwater_infiltration
11d              FLOW             f03_russikon     FLOW     1.0      1.0              
11e              FLOW             ""               FLOW     1.0      1        0.0274772 groundwater_infiltration
11f              FLOW             ""               FLOW     1.0      1        0.027506619 groundwater_infiltration
11g              FLOW             ""               FLOW     1.0      1        0.013591506 groundwater_infiltration
11h              FLOW             ""               FLOW     1.0      1        0.013562087 groundwater_infiltration
12               FLOW             ""               FLOW     1.0      1        0.010561365 groundwater_infiltration
121              FLOW             ""               FLOW     1.0      1        0.023711588 groundwater_infiltration
122              FLOW             ""               FLOW     1.0      1        0.024711829 groundwater_infiltration
123              FLOW             ""               FLOW     1.0      1        0.020740285 groundwater_infiltration
123a             FLOW             ""               FLOW     1.0      1        0.005236554 groundwater_infiltration
124              FLOW             ""               FLOW     1.0      1        0.019181086 groundwater_infiltration
124a             FLOW             ""               FLOW     1.0      1        0.014591747 groundwater_infiltration
125_SBW          FLOW             ""               FLOW     1.0      1        0.003383167 groundwater_infiltration
126_SBW          FLOW             ""               FLOW     1.0      1        0.02697708 groundwater_infiltration
127.2            FLOW             ""               FLOW     1.0      1        0.01197347 groundwater_infiltration
127a_SBW         FLOW             ""               FLOW     1.0      1        0.02671231 groundwater_infiltration
127b__SBE_SW     FLOW             ""               FLOW     1.0      1        0.019328181 groundwater_infiltration
127c_SW          FLOW             ""               FLOW     1.0      1        0.027889064 groundwater_infiltration
127dSW           FLOW             ""               FLOW     1.0      1        0.037626702 groundwater_infiltration
127e_SBW(SW+RW)  FLOW             ""               FLOW     1.0      1        0.01400337 groundwater_infiltration
127f_SBW         FLOW             ""               FLOW     1.0      1        0.015945014 groundwater_infiltration
127gSW           FLOW             ""               FLOW     1.0      1        0.01832794 groundwater_infiltration
128a_Blindsch.   FLOW             ""               FLOW     1.0      1        0.023741007 groundwater_infiltration
12a              FLOW             ""               FLOW     1.0      1        0.013326736 groundwater_infiltration
13               FLOW             ""               FLOW     1.0      1        0.021358081 groundwater_infiltration
134b_            FLOW             ""               FLOW     1.0      1        0.006177957 groundwater_infiltration
134c_SW          FLOW             ""               FLOW     1.0      1        0.015650825 groundwater_infiltration
134SW            FLOW             ""               FLOW     1.0      1        0.000706052 groundwater_infiltration
135MW            FLOW             ""               FLOW     1.0      1        0.01679816 groundwater_infiltration
136MW            FLOW             ""               FLOW     1.0      1        0.009884732 groundwater_infiltration
137              FLOW             ""               FLOW     1.0      1        0.023976358 groundwater_infiltration
138_SBW          FLOW             ""               FLOW     1.0      1        0.006148538 groundwater_infiltration
138a_Mess-Sch.   FLOW             ""               FLOW     1.0      1        0.007913669 groundwater_infiltration
13a              FLOW             ""               FLOW     1.0      1        0.008972747 groundwater_infiltration
13c              FLOW             ""               FLOW     1.0      1        0.008207858 groundwater_infiltration
13d              FLOW             ""               FLOW     1.0      1        0.008943329 groundwater_infiltration
13e              FLOW             ""               FLOW     1.0      1        0.001971063 groundwater_infiltration
14               FLOW             ""               FLOW     1.0      1        0.028712792 groundwater_infiltration
142aSW           FLOW             ""               FLOW     1.0      1        0.013061967 groundwater_infiltration
142SW            FLOW             ""               FLOW     1.0      1        0.020328421 groundwater_infiltration
144              FLOW             ""               FLOW     1.0      1        0.021358081 groundwater_infiltration
146              FLOW             ""               FLOW     1.0      1        0.016651066 groundwater_infiltration
147              FLOW             ""               FLOW     1.0      1        0.019651788 groundwater_infiltration
147a             FLOW             ""               FLOW     1.0      1        0.004559921 groundwater_infiltration
149              FLOW             ""               FLOW     1.0      1        0.021063892 groundwater_infiltration
14a              FLOW             ""               FLOW     1.0      1        0.022593672 groundwater_infiltration
14b              FLOW             ""               FLOW     1.0      1        0.023858683 groundwater_infiltration
15               FLOW             ""               FLOW     1.0      1        0.021210987 groundwater_infiltration
150a             FLOW             ""               FLOW     1.0      1        0.023711588 groundwater_infiltration
150c             FLOW             ""               FLOW     1.0      1        0.00102966 groundwater_infiltration
153              FLOW             ""               FLOW     1.0      1        0.00814902 groundwater_infiltration
154_SBW          FLOW             ""               FLOW     1.0      1        0.018651547 groundwater_infiltration
155SW            FLOW             ""               FLOW     1.0      1        0.019828301 groundwater_infiltration
156a             FLOW             ""               FLOW     1.0      1        0.002500602 groundwater_infiltration
156SW            FLOW             ""               FLOW     1.0      1        0.023240887 groundwater_infiltration
157_SBW          FLOW             ""               FLOW     1.0      1        0.005677837 groundwater_infiltration
157a_SBW         FLOW             ""               FLOW     1.0      1        0.02035784 groundwater_infiltration
159a             FLOW             ""               FLOW     1.0      1        0.012561846 groundwater_infiltration
159c             FLOW             ""               FLOW     1.0      1        0.014532909 groundwater_infiltration
159d             FLOW             ""               FLOW     1.0      1        0.005030622 groundwater_infiltration
159MW            FLOW             ""               FLOW     1.0      1        0.013532668 groundwater_infiltration
15a              FLOW             ""               FLOW     1.0      1        0.02215239 groundwater_infiltration
160MW            FLOW             ""               FLOW     1.0      1        0.013856276 groundwater_infiltration
161              FLOW             ""               FLOW     1.0      1        0.028094996 groundwater_infiltration
162              FLOW             ""               FLOW     1.0      1        0.024594154 groundwater_infiltration
163              FLOW             ""               FLOW     1.0      1        0.028094996 groundwater_infiltration
164              FLOW             ""               FLOW     1.0      1        0.025888583 groundwater_infiltration
165              FLOW             ""               FLOW     1.0      1        0.025918002 groundwater_infiltration
166              FLOW             ""               FLOW     1.0      1        0.026506379 groundwater_infiltration
167_SBW          FLOW             ""               FLOW     1.0      1        0.006648659 groundwater_infiltration
17               FLOW             ""               FLOW     1.0      1        0.020563772 groundwater_infiltration
17a              FLOW             ""               FLOW     1.0      1        0.005530743 groundwater_infiltration
17b              FLOW             ""               FLOW     1.0      1        0.017151186 groundwater_infiltration
17d              FLOW             ""               FLOW     1.0      1        0.013120804 groundwater_infiltration
17e              FLOW             ""               FLOW     1.0      1        0.013120804 groundwater_infiltration
17f              FLOW             ""               FLOW     1.0      1        0.013709181 groundwater_infiltration
17g              FLOW             ""               FLOW     1.0      1        0.013885694 groundwater_infiltration
18               FLOW             ""               FLOW     1.0      1        0.025153112 groundwater_infiltration
19               FLOW             ""               FLOW     1.0      1        0.025270787 groundwater_infiltration
206              FLOW             ""               FLOW     1.0      1        0.01909283 groundwater_infiltration
206a             FLOW             ""               FLOW     1.0      1        0.007648899 groundwater_infiltration
206b             FLOW             ""               FLOW     1.0      1        0.00814902 groundwater_infiltration
207              FLOW             ""               FLOW     1.0      1        0.011090904 groundwater_infiltration
207a             FLOW             ""               FLOW     1.0      1        0.012149983 groundwater_infiltration
207b             FLOW             ""               FLOW     1.0      1        0.00432457 groundwater_infiltration
207c             FLOW             ""               FLOW     1.0      1        0.015974432 groundwater_infiltration
208              FLOW             ""               FLOW     1.0      1        0.016768741 groundwater_infiltration
209              FLOW             ""               FLOW     1.0      1        0.017445375 groundwater_infiltration
210              FLOW             ""               FLOW     1.0      1        0.019887139 groundwater_infiltration
211              FLOW             ""               FLOW     1.0      1        0.018975154 groundwater_infiltration
22a              FLOW             ""               FLOW     1.0      1        0.021593432 groundwater_infiltration
23               FLOW             ""               FLOW     1.0      1        0.024888342 groundwater_infiltration
26_SBW           FLOW             ""               FLOW     1.0      1        0.022887861 groundwater_infiltration
26a              FLOW             ""               FLOW     1.0      1        0.022475997 groundwater_infiltration
27               FLOW             ""               FLOW     1.0      1        0.019828301 groundwater_infiltration
27a              FLOW             ""               FLOW     1.0      1        0.016739322 groundwater_infiltration
27b              FLOW             ""               FLOW     1.0      1        0.015180124 groundwater_infiltration
28               FLOW             ""               FLOW     1.0      1        0.016886417 groundwater_infiltration
284              FLOW             ""               FLOW     1.0      1        0.011385093 groundwater_infiltration
284b             FLOW             ""               FLOW     1.0      1        0.004854109 groundwater_infiltration
285              FLOW             ""               FLOW     1.0      1        0.020416678 groundwater_infiltration
286              FLOW             ""               FLOW     1.0      1        0.020299002 groundwater_infiltration
287              FLOW             ""               FLOW     1.0      1        0.019887139 groundwater_infiltration
28a              FLOW             ""               FLOW     1.0      1        0.004177476 groundwater_infiltration
28b              FLOW             ""               FLOW     1.0      1        0.011002648 groundwater_infiltration
28c              FLOW             ""               FLOW     1.0      1        0.016386296 groundwater_infiltration
28d              FLOW             ""               FLOW     1.0      1        0.010531946 groundwater_infiltration
33a              FLOW             ""               FLOW     1.0      1        0.023799845 groundwater_infiltration
33b              FLOW             ""               FLOW     1.0      1        0.024241128 groundwater_infiltration
34               FLOW             ""               FLOW     1.0      1        0.019063411 groundwater_infiltration
35a              FLOW             ""               FLOW     1.0      1        0.014091626 groundwater_infiltration
35b              FLOW             ""               FLOW     1.0      1        0.016680485 groundwater_infiltration
36               FLOW             ""               FLOW     1.0      1        0.019534112 groundwater_infiltration
36a              FLOW             ""               FLOW     1.0      1        0.01959295 groundwater_infiltration
37               FLOW             ""               FLOW     1.0      1        0.028536279 groundwater_infiltration
373              FLOW             ""               FLOW     1.0      1        0.013532668 groundwater_infiltration
374              FLOW             ""               FLOW     1.0      1        0.015356637 groundwater_infiltration
375              FLOW             ""               FLOW     1.0      1        0.015856757 groundwater_infiltration
376              FLOW             ""               FLOW     1.0      1        0.009855313 groundwater_infiltration
377              FLOW             ""               FLOW     1.0      1        0.004530502 groundwater_infiltration
377b             FLOW             ""               FLOW     1.0      1        0.018092589 groundwater_infiltration
377C             FLOW             ""               FLOW     1.0      1        0.00458934 groundwater_infiltration
378              FLOW             ""               FLOW     1.0      1        0.010855553 groundwater_infiltration
379              FLOW             ""               FLOW     1.0      1        0.015033029 groundwater_infiltration
37a              FLOW             ""               FLOW     1.0      1        0.02188762 groundwater_infiltration
38               FLOW             ""               FLOW     1.0      1        0.028448022 groundwater_infiltration
381              FLOW             ""               FLOW     1.0      1        0.019210505 groundwater_infiltration
381b             FLOW             ""               FLOW     1.0      1        0.020446097 groundwater_infiltration
382              FLOW             ""               FLOW     1.0      1        0.019945976 groundwater_infiltration
382a             FLOW             ""               FLOW     1.0      1        0.019916557 groundwater_infiltration
382b             FLOW             ""               FLOW     1.0      1        0.019445856 groundwater_infiltration
384              FLOW             ""               FLOW     1.0      1        0.001853387 groundwater_infiltration
385              FLOW             ""               FLOW     1.0      1        0.014885935 groundwater_infiltration
386              FLOW             ""               FLOW     1.0      1        0.005942607 groundwater_infiltration
387              FLOW             ""               FLOW     1.0      1        0.006383889 groundwater_infiltration
388              FLOW             ""               FLOW     1.0      1        0.020799123 groundwater_infiltration
389              FLOW             ""               FLOW     1.0      1        0.019063411 groundwater_infiltration
38a              FLOW             ""               FLOW     1.0      1        0.01729828 groundwater_infiltration
38b              FLOW             ""               FLOW     1.0      1        0.010031826 groundwater_infiltration
39               FLOW             ""               FLOW     1.0      1        0.017474793 groundwater_infiltration
39a              FLOW             ""               FLOW     1.0      1        0.014444652 groundwater_infiltration
40               FLOW             ""               FLOW     1.0      1        0.015209542 groundwater_infiltration
40b              FLOW             ""               FLOW     1.0      1        0.022181808 groundwater_infiltration
40d              FLOW             ""               FLOW     1.0      1        0.026829986 groundwater_infiltration
41               FLOW             ""               FLOW     1.0      1        0.003324329 groundwater_infiltration
41a              FLOW             ""               FLOW     1.0      1        0.008972747 groundwater_infiltration
41b              FLOW             ""               FLOW     1.0      1        0.017327699 groundwater_infiltration
42               FLOW             ""               FLOW     1.0      1        0.019122249 groundwater_infiltration
42a              FLOW             ""               FLOW     1.0      1        0.012061726 groundwater_infiltration
446              FLOW             ""               FLOW     1.0      1        0.001823968 groundwater_infiltration
446b             FLOW             ""               FLOW     1.0      1        0.003853869 groundwater_infiltration
446c             FLOW             ""               FLOW     1.0      1        0.027124174 groundwater_infiltration
447              FLOW             ""               FLOW     1.0      1        0.001823968 groundwater_infiltration
447b             FLOW             ""               FLOW     1.0      1        0.015945014 groundwater_infiltration
447c             FLOW             ""               FLOW     1.0      1        0.023182049 groundwater_infiltration
447d             FLOW             ""               FLOW     1.0      1        0.022181808 groundwater_infiltration
448              FLOW             ""               FLOW     1.0      1        0.028065577 groundwater_infiltration
448a             FLOW             ""               FLOW     1.0      1        0.008737397 groundwater_infiltration
448b             FLOW             ""               FLOW     1.0      1        0.016680485 groundwater_infiltration
448c             FLOW             ""               FLOW     1.0      1        0.017474793 groundwater_infiltration
448d             FLOW             ""               FLOW     1.0      1        0.004000963 groundwater_infiltration
45               FLOW             ""               FLOW     1.0      1        0.010208339 groundwater_infiltration
45a              FLOW             ""               FLOW     1.0      1        0.024505897 groundwater_infiltration
47               FLOW             ""               FLOW     1.0      1        0.014385815 groundwater_infiltration
47a              FLOW             ""               FLOW     1.0      1        0.029360006 groundwater_infiltration
48a_SBW          FLOW             ""               FLOW     1.0      1        0.003706774 groundwater_infiltration
48c_SBW          FLOW             ""               FLOW     1.0      1        0.027889064 groundwater_infiltration
50_SBW           FLOW             ""               FLOW     1.0      1        0.015091867 groundwater_infiltration
533_SW           FLOW             ""               FLOW     1.0      1        0.021210987 groundwater_infiltration
534_SW           FLOW             ""               FLOW     1.0      1        0.021446337 groundwater_infiltration
55               FLOW             ""               FLOW     1.0      1        0.024329384 groundwater_infiltration
555              FLOW             f02_rumlikon     FLOW     1.0      1.0              
556              FLOW             ""               FLOW     1.0      1        0.02671231 groundwater_infiltration
557              FLOW             ""               FLOW     1.0      1        0.021299243 groundwater_infiltration
558              FLOW             ""               FLOW     1.0      1        0.017415956 groundwater_infiltration
566              FLOW             ""               FLOW     1.0      1        0.019828301 groundwater_infiltration
567              FLOW             ""               FLOW     1.0      1        0.01985772 groundwater_infiltration
57_SBW           FLOW             ""               FLOW     1.0      1        0.026859405 groundwater_infiltration
571              FLOW             ""               FLOW     1.0      1        0.003647937 groundwater_infiltration
572              FLOW             ""               FLOW     1.0      1        0.003118397 groundwater_infiltration
573              FLOW             ""               FLOW     1.0      1        0.018151427 groundwater_infiltration
574              FLOW             ""               FLOW     1.0      1        0.006648659 groundwater_infiltration
575              FLOW             ""               FLOW     1.0      1        0.00535423 groundwater_infiltration
576              FLOW             ""               FLOW     1.0      1        0.025623813 groundwater_infiltration
577_SBW          FLOW             ""               FLOW     1.0      1        0.034067021 groundwater_infiltration
578              FLOW             ""               FLOW     1.0      1        0.002147576 groundwater_infiltration
579              FLOW             ""               FLOW     1.0      1        0.007648899 groundwater_infiltration
579a             FLOW             ""               FLOW     1.0      1        0.018533872 groundwater_infiltration
579b             FLOW             ""               FLOW     1.0      1        0.037832634 groundwater_infiltration
579c             FLOW             ""               FLOW     1.0      1        0.039097644 groundwater_infiltration
579d             FLOW             ""               FLOW     1.0      1        0.006148538 groundwater_infiltration
58_Spezialsch._  FLOW             ""               FLOW     1.0      1        0.030242572 groundwater_infiltration
581_SBW          FLOW             ""               FLOW     1.0      1        0.015091867 groundwater_infiltration
582_SBW          FLOW             ""               FLOW     1.0      1        0.027300687 groundwater_infiltration
583_SBW          FLOW             ""               FLOW     1.0      1        0.019769463 groundwater_infiltration
584_SBW          FLOW             ""               FLOW     1.0      1        0.027889064 groundwater_infiltration
585_SBW          FLOW             ""               FLOW     1.0      1        0.031625257 groundwater_infiltration
591              FLOW             ""               FLOW     1.0      1        0.002118157 groundwater_infiltration
591a             FLOW             ""               FLOW     1.0      1        0.002559439 groundwater_infiltration
591cSW           FLOW             ""               FLOW     1.0      1        0.018180846 groundwater_infiltration
591dSW           FLOW             ""               FLOW     1.0      1        0.017592469 groundwater_infiltration
591e             FLOW             ""               FLOW     1.0      1        0.007207617 groundwater_infiltration
591f             FLOW             ""               FLOW     1.0      1        0.016092108 groundwater_infiltration
591g             FLOW             ""               FLOW     1.0      1        0.024476478 groundwater_infiltration
591h             FLOW             ""               FLOW     1.0      1        0.024358803 groundwater_infiltration
591i             FLOW             ""               FLOW     1.0      1        0.012767778 groundwater_infiltration
591j             FLOW             ""               FLOW     1.0      1        0.005383648 groundwater_infiltration
591n             FLOW             ""               FLOW     1.0      1        0.021358081 groundwater_infiltration
591o             FLOW             ""               FLOW     1.0      1        0.017504212 groundwater_infiltration
591p             FLOW             ""               FLOW     1.0      1        0.019828301 groundwater_infiltration
591q             FLOW             ""               FLOW     1.0      1        0.015415474 groundwater_infiltration
592              FLOW             ""               FLOW     1.0      1        0.021446337 groundwater_infiltration
593              FLOW             ""               FLOW     1.0      1        0.015474312 groundwater_infiltration
594              FLOW             ""               FLOW     1.0      1        0.026123934 groundwater_infiltration
596              FLOW             ""               FLOW     1.0      1        0.05548394 groundwater_infiltration
596__Spez.sch.   FLOW             ""               FLOW     1.0      1        0.00305956 groundwater_infiltration
596a             FLOW             ""               FLOW     1.0      1        0.004942366 groundwater_infiltration
596c             FLOW             ""               FLOW     1.0      1        0.008678559 groundwater_infiltration
596d             FLOW             ""               FLOW     1.0      1        0.010237758 groundwater_infiltration
596e             FLOW             ""               FLOW     1.0      1        0.019534112 groundwater_infiltration
597.2_SBW        FLOW             ""               FLOW     1.0      1        0.02774197 groundwater_infiltration
597_SBW          FLOW             ""               FLOW     1.0      1        0.055189752 groundwater_infiltration
597a             FLOW             ""               FLOW     1.0      1        0.003765612 groundwater_infiltration
597c             FLOW             ""               FLOW     1.0      1        0.020210746 groundwater_infiltration
597d             FLOW             ""               FLOW     1.0      1        0.005766093 groundwater_infiltration
597e             FLOW             ""               FLOW     1.0      1        0.010590784 groundwater_infiltration
597f             FLOW             ""               FLOW     1.0      1        0.027536038 groundwater_infiltration
597g             FLOW             ""               FLOW     1.0      1        0.008178439 groundwater_infiltration
597h             FLOW             ""               FLOW     1.0      1        0.017415956 groundwater_infiltration
597j             FLOW             ""               FLOW     1.0      1        0.019651788 groundwater_infiltration
597k             FLOW             ""               FLOW     1.0      1        0.018945736 groundwater_infiltration
597m             FLOW             ""               FLOW     1.0      1        0.020504934 groundwater_infiltration
597n             FLOW             ""               FLOW     1.0      1        0.016680485 groundwater_infiltration
598              FLOW             ""               FLOW     1.0      1        0.00864914 groundwater_infiltration
5fSWRW           FLOW             ""               FLOW     1.0      1        0.023182049 groundwater_infiltration
5g_SBW           FLOW             ""               FLOW     1.0      1        0.018122008 groundwater_infiltration
6_SBW            FLOW             ""               FLOW     1.0      1        0.013120804 groundwater_infiltration
600_SBW          FLOW             ""               FLOW     1.0      1        0.011591025 groundwater_infiltration
601              FLOW             ""               FLOW     1.0      1        0.013650344 groundwater_infiltration
602              FLOW             ""               FLOW     1.0      1        0.019887139 groundwater_infiltration
603              FLOW             ""               FLOW     1.0      1        0.016386296 groundwater_infiltration
603A_SBW         FLOW             ""               FLOW     1.0      1        0.009561124 groundwater_infiltration
604              FLOW             ""               FLOW     1.0      1        0.007678318 groundwater_infiltration
604_SBW          FLOW             ""               FLOW     1.0      1        0.022211227 groundwater_infiltration
604b             FLOW             ""               FLOW     1.0      1        0.015415474 groundwater_infiltration
604c             FLOW             ""               FLOW     1.0      1        0.015415474 groundwater_infiltration
605              FLOW             ""               FLOW     1.0      1        0.018945736 groundwater_infiltration
605alt           FLOW             ""               FLOW     1.0      1        0.019740044 groundwater_infiltration
606              FLOW             ""               FLOW     1.0      1        0.011296836 groundwater_infiltration
606alt           FLOW             ""               FLOW     1.0      1        0.014650584 groundwater_infiltration
607_SBW          FLOW             ""               FLOW     1.0      1        0.004501083 groundwater_infiltration
609              FLOW             ""               FLOW     1.0      1        0.018445615 groundwater_infiltration
6a               FLOW             ""               FLOW     1.0      1        0.021299243 groundwater_infiltration
6b               FLOW             ""               FLOW     1.0      1        0.017974914 groundwater_infiltration
7                FLOW             ""               FLOW     1.0      1        0.003442005 groundwater_infiltration
7a               FLOW             ""               FLOW     1.0      1        0.021210987 groundwater_infiltration
8                FLOW             ""               FLOW     1.0      1        0.021181568 groundwater_infiltration
801_SBW          FLOW             ""               FLOW     1.0      1        0.020946217 groundwater_infiltration
801b             FLOW             ""               FLOW     1.0      1        0.022946698 groundwater_infiltration
801c             FLOW             ""               FLOW     1.0      1        0.033802252 groundwater_infiltration
801d             FLOW             ""               FLOW     1.0      1        0.015091867 groundwater_infiltration
801f             FLOW             ""               FLOW     1.0      1        0.015062448 groundwater_infiltration
801i             FLOW             ""               FLOW     1.0      1        0.018151427 groundwater_infiltration
802              FLOW             ""               FLOW     1.0      1        0.034508304 groundwater_infiltration
803_SBW_1        FLOW             ""               FLOW     1.0      1        0.028801048 groundwater_infiltration
804              FLOW             ""               FLOW     1.0      1        0.018769223 groundwater_infiltration
805_SBW          FLOW             ""               FLOW     1.0      1        0.029330588 groundwater_infiltration
805b             FLOW             ""               FLOW     1.0      1        0.006854591 groundwater_infiltration
805c             FLOW             ""               FLOW     1.0      1        0.022887861 groundwater_infiltration
805d             FLOW             ""               FLOW     1.0      1        0.021475756 groundwater_infiltration
805e             FLOW             ""               FLOW     1.0      1        0.024800086 groundwater_infiltration
805f             FLOW             ""               FLOW     1.0      1        0.020769704 groundwater_infiltration
805g             FLOW             ""               FLOW     1.0      1        0.023476238 groundwater_infiltration
805i             FLOW             ""               FLOW     1.0      1        0.02494718 groundwater_infiltration
805k             FLOW             ""               FLOW     1.0      1        0.021358081 groundwater_infiltration
8a               FLOW             ""               FLOW     1.0      1        0.021564013 groundwater_infiltration
9                FLOW             ""               FLOW     1.0      1        0.020828542 groundwater_infiltration
KNO4983          FLOW             ""               FLOW     1.0      1        0.004707015 groundwater_infiltration
L43              FLOW             ""               FLOW     1.0      1        0.00229467 groundwater_infiltration
L45              FLOW             ""               FLOW     1.0      1        0.006442727 groundwater_infiltration
Node_1           FLOW             ""               FLOW     1.0      1        0.00941403 groundwater_infiltration
Node_12          FLOW             ""               FLOW     1.0      1        0.008825653 groundwater_infiltration
Node_3           FLOW             ""               FLOW     1.0      1        0.005618999 groundwater_infiltration
P1005            FLOW             ""               FLOW     1.0      1        0.017592469 groundwater_infiltration
RA_40a_SBW       FLOW             ""               FLOW     1.0      1        0.016974673 groundwater_infiltration
RK59_Deckel01    FLOW             ""               FLOW     1.0      1        0.007943088 groundwater_infiltration
RK59_MW          FLOW             ""               FLOW     1.0      1        0.011532187 groundwater_infiltration
RÜB_128          FLOW             ""               FLOW     1.0      1        0.006383889 groundwater_infiltration
SK_102_Steuerschacht FLOW             ""               FLOW     1.0      1        0.008678559 groundwater_infiltration
SK102_SBW        FLOW             ""               FLOW     1.0      1        0.004030382 groundwater_infiltration
VS_22            FLOW             ""               FLOW     1.0      1        0.039980209 groundwater_infiltration
ARA_Fehraltorf   FLOW             ""               FLOW     1.0      1        0.007148779 groundwater_infiltration
FB_ARA           FLOW             ""               FLOW     1.0      1        0.015797919 groundwater_infiltration
RÜB+PW80_Industrie FLOW             ""               FLOW     1.0      1        0.034802493 groundwater_infiltration
GU63_Pumpensch.  FLOW             ""               FLOW     1.0      1        0.005560162 groundwater_infiltration

[DWF]
;;Node           Constituent      Baseline   Patterns  
;;-------------- ---------------- ---------- ----------
102a             FLOW             0.021      "weekend_var" "daily_var"
102c             FLOW             0.021      "weekend_var" "daily_var"
102d             FLOW             0.031      "weekend_var" "daily_var"
102e             FLOW             0.041      "weekend_var" "daily_var"
102f             FLOW             0.082      "weekend_var" "daily_var"
102g             FLOW             0.021      "weekend_var" "daily_var"
102i             FLOW             0.093      "weekend_var" "daily_var"
102k             FLOW             0.021      "weekend_var" "daily_var"
104a             FLOW             0.021      "weekend_var" "daily_var"
104b             FLOW             0.041      "weekend_var" "daily_var"
104c             FLOW             0.113      "weekend_var" "daily_var"
104d             FLOW             0.021      "weekend_var" "daily_var"
104e             FLOW             0.072      "weekend_var" "daily_var"
105              FLOW             0.072      "weekend_var" "daily_var"
106              FLOW             0.113      "weekend_var" "daily_var"
1102             FLOW             0.072      "weekend_var" "daily_var"
112              FLOW             0.206      "weekend_var" "daily_var"
114              FLOW             0.165      "weekend_var" "daily_var"
11g              FLOW             0.082      "weekend_var" "daily_var"
12               FLOW             0          "weekend_var" "daily_var"
121              FLOW             0.175      "weekend_var" "daily_var"
122              FLOW             0.144      "weekend_var" "daily_var"
124              FLOW             0.196      "weekend_var" "daily_var"
124a             FLOW             0.062      "weekend_var" "daily_var"
125_SBW          FLOW             0.01       "weekend_var" "daily_var"
126_SBW          FLOW             0.072      "weekend_var" "daily_var"
127.2            FLOW             0.268      "weekend_var" "daily_var"
128a_Blindsch.   FLOW             0.206      "weekend_var" "daily_var"
12b              FLOW             0.093      "weekend_var" "daily_var"
13               FLOW             0.072      "weekend_var" "daily_var"
134a_SW          FLOW             0.072      "weekend_var" "daily_var"
134c_SW          FLOW             0.031      "weekend_var" "daily_var"
135MW            FLOW             0.041      "weekend_var" "daily_var"
136MW            FLOW             0.01       "weekend_var" "daily_var"
137              FLOW             0.144      "weekend_var" "daily_var"
13d              FLOW             0.062      "weekend_var" "daily_var"
14               FLOW             0.103      "weekend_var" "daily_var"
142aSW           FLOW             0.062      "weekend_var" "daily_var"
142SW            FLOW             0.144      "weekend_var" "daily_var"
144              FLOW             0.124      "weekend_var" "daily_var"
145              FLOW             0.021      "weekend_var" "daily_var"
146              FLOW             0.052      "weekend_var" "daily_var"
147              FLOW             0.031      "weekend_var" "daily_var"
148              FLOW             0.031      "weekend_var" "daily_var"
149              FLOW             0.082      "weekend_var" "daily_var"
14a              FLOW             0.072      "weekend_var" "daily_var"
14b              FLOW             0.227      "weekend_var" "daily_var"
15               FLOW             0.052      "weekend_var" "daily_var"
150              FLOW             0.113      "weekend_var" "daily_var"
150b             FLOW             0.155      "weekend_var" "daily_var"
153              FLOW             0.041      "weekend_var" "daily_var"
156SW            FLOW             0.217      "weekend_var" "daily_var"
159c             FLOW             0.052      "weekend_var" "daily_var"
159MW            FLOW             0.062      "weekend_var" "daily_var"
15a              FLOW             0.113      "weekend_var" "daily_var"
160MW            FLOW             0.052      "weekend_var" "daily_var"
161              FLOW             0.072      "weekend_var" "daily_var"
163              FLOW             0.412      "weekend_var" "daily_var"
165              FLOW             0.186      "weekend_var" "daily_var"
166              FLOW             0.155      "weekend_var" "daily_var"
17               FLOW             0.052      "weekend_var" "daily_var"
17b              FLOW             0.072      "weekend_var" "daily_var"
18               FLOW             0.165      "weekend_var" "daily_var"
206b             FLOW             0.217      "weekend_var" "daily_var"
207              FLOW             0.031      "weekend_var" "daily_var"
207b             FLOW             0.031      "weekend_var" "daily_var"
208              FLOW             0.093      "weekend_var" "daily_var"
210              FLOW             0.062      "weekend_var" "daily_var"
211              FLOW             0.041      "weekend_var" "daily_var"
22a              FLOW             0.144      "weekend_var" "daily_var"
23               FLOW             0.206      "weekend_var" "daily_var"
27               FLOW             0.041      "weekend_var" "daily_var"
27b              FLOW             0.124      "weekend_var" "daily_var"
28               FLOW             0.052      "weekend_var" "daily_var"
284a             FLOW             0.258      "weekend_var" "daily_var"
285              FLOW             0.103      "weekend_var" "daily_var"
287              FLOW             0.052      "weekend_var" "daily_var"
28b              FLOW             0.041      "weekend_var" "daily_var"
28c              FLOW             0.113      "weekend_var" "daily_var"
33a              FLOW             0.031      "weekend_var" "daily_var"
33b              FLOW             0.144      "weekend_var" "daily_var"
34               FLOW             0.082      "weekend_var" "daily_var"
35a              FLOW             0.155      "weekend_var" "daily_var"
36               FLOW             0.103      "weekend_var" "daily_var"
37               FLOW             0.134      "weekend_var" "daily_var"
374              FLOW             0.113      "weekend_var" "daily_var"
376a             FLOW             0.103      "weekend_var" "daily_var"
377              FLOW             0.072      "weekend_var" "daily_var"
377a             FLOW             0.01       "weekend_var" "daily_var"
378              FLOW             0.041      "weekend_var" "daily_var"
379              FLOW             0.021      "weekend_var" "daily_var"
37a              FLOW             0.103      "weekend_var" "daily_var"
38               FLOW             0.134      "weekend_var" "daily_var"
381              FLOW             0.082      "weekend_var" "daily_var"
381b             FLOW             0.082      "weekend_var" "daily_var"
382b             FLOW             0.485      "weekend_var" "daily_var"
384              FLOW             0.052      "weekend_var" "daily_var"
385              FLOW             0.082      "weekend_var" "daily_var"
386              FLOW             0.217      "weekend_var" "daily_var"
387              FLOW             0.082      "weekend_var" "daily_var"
389              FLOW             0.144      "weekend_var" "daily_var"
38b              FLOW             0.103      "weekend_var" "daily_var"
39               FLOW             0.082      "weekend_var" "daily_var"
40               FLOW             0.268      "weekend_var" "daily_var"
40b              FLOW             0.155      "weekend_var" "daily_var"
41b              FLOW             0.093      "weekend_var" "daily_var"
42               FLOW             0.124      "weekend_var" "daily_var"
446              FLOW             0.165      "weekend_var" "daily_var"
446a             FLOW             0.062      "weekend_var" "daily_var"
448              FLOW             0.381      "weekend_var" "daily_var"
448a             FLOW             0.134      "weekend_var" "daily_var"
448c             FLOW             0.124      "weekend_var" "daily_var"
47               FLOW             0.186      "weekend_var" "daily_var"
48a_SBW          FLOW             0.01       "weekend_var" "daily_var"
509_SW           FLOW             0.091176961 "daily_var" "weekend_var"
510_SW           FLOW             0.017295168 "daily_var" "weekend_var"
52_SW            FLOW             0.033260789 "daily_var" "weekend_var"
523_SW           FLOW             0.099363557 "daily_var" "weekend_var"
525_SW           FLOW             0.134121957 "daily_var" "weekend_var"
526_SW           FLOW             0.026778917 "daily_var" "weekend_var"
565              FLOW             0.217      "weekend_var" "daily_var"
567              FLOW             0.062      "weekend_var" "daily_var"
56a              FLOW             0.041      "weekend_var" "daily_var"
575              FLOW             0.031      "weekend_var" "daily_var"
576a             FLOW             0.103      "weekend_var" "daily_var"
579              FLOW             0.299      "weekend_var" "daily_var"
579a             FLOW             0.237      "weekend_var" "daily_var"
58_SBW           FLOW             0.144      "weekend_var" "daily_var"
582_SBW          FLOW             0.093      "weekend_var" "daily_var"
583_SBW          FLOW             0.082      "weekend_var" "daily_var"
584_SBW          FLOW             0.124      "weekend_var" "daily_var"
591              FLOW             0.052      "weekend_var" "daily_var"
591e             FLOW             0.041      "weekend_var" "daily_var"
591g             FLOW             0.072      "weekend_var" "daily_var"
591h             FLOW             0.093      "weekend_var" "daily_var"
591i             FLOW             0.052      "weekend_var" "daily_var"
591m             FLOW             0.031      "weekend_var" "daily_var"
591n             FLOW             0.144      "weekend_var" "daily_var"
591o             FLOW             0.072      "weekend_var" "daily_var"
591p             FLOW             0.021      "weekend_var" "daily_var"
591q             FLOW             0.021      "weekend_var" "daily_var"
596__Spez.sch.   FLOW             0.186      "weekend_var" "daily_var"
596d             FLOW             0.113      "weekend_var" "daily_var"
597_SBW          FLOW             0.175      "weekend_var" "daily_var"
597a             FLOW             0.227      "weekend_var" "daily_var"
597b             FLOW             0.124      "weekend_var" "daily_var"
597d             FLOW             0.031      "weekend_var" "daily_var"
597e             FLOW             0.062      "weekend_var" "daily_var"
597f             FLOW             0.258      "weekend_var" "daily_var"
597g             FLOW             0.196      "weekend_var" "daily_var"
597i             FLOW             0.165      "weekend_var" "daily_var"
597k             FLOW             0.227      "weekend_var" "daily_var"
597m             FLOW             0.052      "weekend_var" "daily_var"
597n             FLOW             0.052      "weekend_var" "daily_var"
5h               FLOW             0.165      "weekend_var" "daily_var"
6_SBW            FLOW             0.031      "weekend_var" "daily_var"
601              FLOW             0.072      "weekend_var" "daily_var"
602              FLOW             0.144      "weekend_var" "daily_var"
603              FLOW             0.134      "weekend_var" "daily_var"
605              FLOW             0.165      "weekend_var" "daily_var"
608              FLOW             0.103      "weekend_var" "daily_var"
6a               FLOW             0.082      "weekend_var" "daily_var"
6b               FLOW             0.072      "weekend_var" "daily_var"
7a               FLOW             0.165      "weekend_var" "daily_var"
8                FLOW             0.082      "weekend_var" "daily_var"
801c             FLOW             0.247      "weekend_var" "daily_var"
801d             FLOW             0.072      "weekend_var" "daily_var"
801e             FLOW             0.33       "weekend_var" "daily_var"
801g             FLOW             0.134      "weekend_var" "daily_var"
801h             FLOW             0.144      "weekend_var" "daily_var"
802              FLOW             0.405      "weekend_var" "daily_var"
804              FLOW             0.113      "weekend_var" "daily_var"
805_SBW          FLOW             0.227      "weekend_var" "daily_var"
805a             FLOW             0.134      "weekend_var" "daily_var"
805b             FLOW             0.01       "weekend_var" "daily_var"
805c             FLOW             0.103      "weekend_var" "daily_var"
805d             FLOW             0.093      "weekend_var" "daily_var"
805e             FLOW             0.144      "weekend_var" "daily_var"
805g             FLOW             0.196      "weekend_var" "daily_var"
805h             FLOW             0.464      "weekend_var" "daily_var"
805j             FLOW             0.34       "weekend_var" "daily_var"
805k             FLOW             0.278      "weekend_var" "daily_var"
8a               FLOW             0.052      "weekend_var" "daily_var"
9                FLOW             0.103      "weekend_var" "daily_var"
P366             FLOW             0.134      "weekend_var" "daily_var"
VS_22            FLOW             0.103      "weekend_var" "daily_var"
B10              FLOW             0.03       "weekend_var" "daily_var"
B101             FLOW             0.19       "weekend_var" "daily_var"
B102             FLOW             0.04       "weekend_var" "daily_var"
B103             FLOW             0.06       "weekend_var" "daily_var"
B104             FLOW             0.15       "weekend_var" "daily_var"
B105             FLOW             0.07       "weekend_var" "daily_var"
B106             FLOW             0.04       "weekend_var" "daily_var"
B107             FLOW             0.15       "weekend_var" "daily_var"
B11              FLOW             0.07       "weekend_var" "daily_var"
B111             FLOW             0.10       "weekend_var" "daily_var"
B12              FLOW             0.05       "weekend_var" "daily_var"
B121             FLOW             0.09       "weekend_var" "daily_var"
B122             FLOW             0.05       "weekend_var" "daily_var"
B123             FLOW             0.13       "weekend_var" "daily_var"
B124             FLOW             0.04       "weekend_var" "daily_var"
B13              FLOW             0.11       "weekend_var" "daily_var"
B131             FLOW             0.0        "weekend_var" "daily_var"
B132             FLOW             0.00       "weekend_var" "daily_var"
B133             FLOW             0.03       "weekend_var" "daily_var"
B134             FLOW             0.03       "weekend_var" "daily_var"
B135             FLOW             0.03       "weekend_var" "daily_var"
B136             FLOW             0.02       "weekend_var" "daily_var"
B137             FLOW             0.00       "weekend_var" "daily_var"
B138             FLOW             0.02       "weekend_var" "daily_var"
B139             FLOW             0.03       "weekend_var" "daily_var"
B140             FLOW             0.02       "weekend_var" "daily_var"
B141             FLOW             0.02       "weekend_var" "daily_var"
B142             FLOW             0.06       "weekend_var" "daily_var"
B143             FLOW             0.08       "weekend_var" "daily_var"
B151             FLOW             0.06       "weekend_var" "daily_var"
B152             FLOW             0.06       "weekend_var" "daily_var"
B153             FLOW             0.11       "weekend_var" "daily_var"
B161             FLOW             0.11       "weekend_var" "daily_var"
B171             FLOW             0.07       "weekend_var" "daily_var"
B172             FLOW             0.04       "weekend_var" "daily_var"
B173             FLOW             0.08       "weekend_var" "daily_var"
B181             FLOW             0.05       "weekend_var" "daily_var"
B191             FLOW             0.22       "weekend_var" "daily_var"
B2               FLOW             0.0        "weekend_var" "daily_var"
B201             FLOW             0.03       "weekend_var" "daily_var"
B202             FLOW             0.03       "weekend_var" "daily_var"
B203             FLOW             0.03       "weekend_var" "daily_var"
B204             FLOW             0.06       "weekend_var" "daily_var"
B205             FLOW             0.08       "weekend_var" "daily_var"
B21              FLOW             0.15       "weekend_var" "daily_var"
B22              FLOW             0.00       "weekend_var" "daily_var"
B3               FLOW             0.00       "weekend_var" "daily_var"
B31              FLOW             0.05       "weekend_var" "daily_var"
B4               FLOW             0.00       "weekend_var" "daily_var"
B41              FLOW             0.06       "weekend_var" "daily_var"
B42              FLOW             0.06       "weekend_var" "daily_var"
B43              FLOW             0.05       "weekend_var" "daily_var"
B5               FLOW             0.09       "weekend_var" "daily_var"
B51              FLOW             0.01       "weekend_var" "daily_var"
B52              FLOW             0.26       "weekend_var" "daily_var"
B53              FLOW             0.0        "weekend_var" "daily_var"
B54              FLOW             0.04       "weekend_var" "daily_var"
B55              FLOW             0.10       "weekend_var" "daily_var"
B56              FLOW             0.09       "weekend_var" "daily_var"
B57              FLOW             0.21       "weekend_var" "daily_var"
B58              FLOW             0.0        "weekend_var" "daily_var"
B59              FLOW             0.07       "weekend_var" "daily_var"
B6               FLOW             0.11       "weekend_var" "daily_var"
B60              FLOW             0.07       "weekend_var" "daily_var"
B61              FLOW             0.00       "weekend_var" "daily_var"
B62              FLOW             0.02       "weekend_var" "daily_var"
B63              FLOW             0.12       "weekend_var" "daily_var"
B7               FLOW             0.03       "weekend_var" "daily_var"
B71              FLOW             0.02       "weekend_var" "daily_var"
B72              FLOW             0.09       "weekend_var" "daily_var"
B73              FLOW             0.08       "weekend_var" "daily_var"
B74              FLOW             0.05       "weekend_var" "daily_var"
B8               FLOW             0.02       "weekend_var" "daily_var"
B81              FLOW             0.03       "weekend_var" "daily_var"
B82              FLOW             0.00       "weekend_var" "daily_var"
B83              FLOW             0.02       "weekend_var" "daily_var"
B84              FLOW             0.07       "weekend_var" "daily_var"
B85              FLOW             0.02       "weekend_var" "daily_var"
B86              FLOW             0.06       "weekend_var" "daily_var"
B9               FLOW             0.12       "weekend_var" "daily_var"
B91              FLOW             0.03       "weekend_var" "daily_var"
B92              FLOW             0.00       "weekend_var" "daily_var"
B93              FLOW             0.05       "weekend_var" "daily_var"
B94              FLOW             0.05       "weekend_var" "daily_var"
B95              FLOW             0.03       "weekend_var" "daily_var"
C10              FLOW             0.05       "weekend_var" "daily_var"
C11              FLOW             0.71       "weekend_var" "daily_var"
C2               FLOW             0.03       "weekend_var" "daily_var"
C3               FLOW             0.06       "weekend_var" "daily_var"
C31              FLOW             0.12       "weekend_var" "daily_var"
C32              FLOW             0.06       "weekend_var" "daily_var"
C33              FLOW             0.13       "weekend_var" "daily_var"
C34              FLOW             0.12       "weekend_var" "daily_var"
C35              FLOW             0.18       "weekend_var" "daily_var"
C36              FLOW             0.00       "weekend_var" "daily_var"
C37              FLOW             0.08       "weekend_var" "daily_var"
C38              FLOW             0.03       "weekend_var" "daily_var"
C39              FLOW             0.15       "weekend_var" "daily_var"
C4               FLOW             0.10       "weekend_var" "daily_var"
C40              FLOW             0.10       "weekend_var" "daily_var"
C41              FLOW             0.00       "weekend_var" "daily_var"
C43              FLOW             0.00       "weekend_var" "daily_var"
C44              FLOW             0.07       "weekend_var" "daily_var"
C5               FLOW             0.21       "weekend_var" "daily_var"
C51              FLOW             0.03       "weekend_var" "daily_var"
C52              FLOW             0.20       "weekend_var" "daily_var"
C54              FLOW             0.20       "weekend_var" "daily_var"
C6               FLOW             0.08       "weekend_var" "daily_var"
C61              FLOW             0.16       "weekend_var" "daily_var"
C7               FLOW             0.07       "weekend_var" "daily_var"
C71              FLOW             0.30       "weekend_var" "daily_var"
C72              FLOW             0.14       "weekend_var" "daily_var"
C8               FLOW             0.14       "weekend_var" "daily_var"
C9               FLOW             0.21       "weekend_var" "daily_var"
D10              FLOW             0.14       "weekend_var" "daily_var"
D101             FLOW             0.17       "weekend_var" "daily_var"
D11              FLOW             0.02       "weekend_var" "daily_var"
D111             FLOW             0.14       "weekend_var" "daily_var"
D112             FLOW             0.08       "weekend_var" "daily_var"
D113             FLOW             0.07       "weekend_var" "daily_var"
D114             FLOW             0.09       "weekend_var" "daily_var"
D121             FLOW             0.25       "weekend_var" "daily_var"
D2               FLOW             0.17       "weekend_var" "daily_var"
D21              FLOW             0.06       "weekend_var" "daily_var"
D22              FLOW             0.06       "weekend_var" "daily_var"
D23              FLOW             0.05       "weekend_var" "daily_var"
D24              FLOW             0.06       "weekend_var" "daily_var"
D3               FLOW             0.05       "weekend_var" "daily_var"
D31              FLOW             0.00       "weekend_var" "daily_var"
D32              FLOW             0.48       "weekend_var" "daily_var"
D33              FLOW             0.11       "weekend_var" "daily_var"
D34              FLOW             0.00       "weekend_var" "daily_var"
D35              FLOW             0.00       "weekend_var" "daily_var"
D36              FLOW             0.00       "weekend_var" "daily_var"
D37              FLOW             0.19       "weekend_var" "daily_var"
D38              FLOW             0.00       "weekend_var" "daily_var"
D39              FLOW             0.18       "weekend_var" "daily_var"
D4               FLOW             0.07       "weekend_var" "daily_var"
D40              FLOW             0.09       "weekend_var" "daily_var"
D41              FLOW             0.13       "weekend_var" "daily_var"
D42              FLOW             0.06       "weekend_var" "daily_var"
D5               FLOW             0.13       "weekend_var" "daily_var"
D51              FLOW             0.19       "weekend_var" "daily_var"
D52              FLOW             0.15       "weekend_var" "daily_var"
D53              FLOW             0.08       "weekend_var" "daily_var"
D54              FLOW             0.06       "weekend_var" "daily_var"
D6               FLOW             0.00       "weekend_var" "daily_var"
D61              FLOW             0.00       "weekend_var" "daily_var"
D62              FLOW             0.00       "weekend_var" "daily_var"
D63              FLOW             0.04       "weekend_var" "daily_var"
D64              FLOW             0.08       "weekend_var" "daily_var"
D65              FLOW             0.07       "weekend_var" "daily_var"
D66              FLOW             0.00       "weekend_var" "daily_var"
D7               FLOW             0.11       "weekend_var" "daily_var"
D71              FLOW             0.11       "weekend_var" "daily_var"
D8               FLOW             0.00       "weekend_var" "daily_var"
D81              FLOW             0.19       "weekend_var" "daily_var"
D82              FLOW             0.31       "weekend_var" "daily_var"
D83              FLOW             0.00       "weekend_var" "daily_var"
D84              FLOW             0.70       "weekend_var" "daily_var"
D85              FLOW             0.17       "weekend_var" "daily_var"
D86              FLOW             0.00       "weekend_var" "daily_var"
D87              FLOW             0.05       "weekend_var" "daily_var"
D88              FLOW             0.12       "weekend_var" "daily_var"
D89              FLOW             0.58       "weekend_var" "daily_var"
D9               FLOW             0.03       "weekend_var" "daily_var"
D91              FLOW             0.17       "weekend_var" "daily_var"
D92              FLOW             0.00       "weekend_var" "daily_var"
D93              FLOW             0.00       "weekend_var" "daily_var"
D94              FLOW             0.04       "weekend_var" "daily_var"
D95              FLOW             0.17       "weekend_var" "daily_var"
D96              FLOW             0.06       "weekend_var" "daily_var"
E10              FLOW             0.00       "weekend_var" "daily_var"
E11              FLOW             0.04       "weekend_var" "daily_var"
E12              FLOW             0.00       "weekend_var" "daily_var"
E13              FLOW             0.00       "weekend_var" "daily_var"
E14              FLOW             0.00       "weekend_var" "daily_var"
E15              FLOW             0.00       "weekend_var" "daily_var"
E16              FLOW             0.08       "weekend_var" "daily_var"
E17              FLOW             0.04       "weekend_var" "daily_var"
E18              FLOW             0.11       "weekend_var" "daily_var"
E2               FLOW             0.00       "weekend_var" "daily_var"
E3               FLOW             0.00       "weekend_var" "daily_var"
E4               FLOW             0.00       "weekend_var" "daily_var"
E41              FLOW             0.00       "weekend_var" "daily_var"
E44              FLOW             0.07       "weekend_var" "daily_var"
E45              FLOW             0.04       "weekend_var" "daily_var"
E46              FLOW             0.00       "weekend_var" "daily_var"
E47              FLOW             0.06       "weekend_var" "daily_var"
E48              FLOW             0.07       "weekend_var" "daily_var"
E49              FLOW             0.10       "weekend_var" "daily_var"
E5               FLOW             0.00       "weekend_var" "daily_var"
E51              FLOW             0.10       "weekend_var" "daily_var"
E6               FLOW             0.00       "weekend_var" "daily_var"
E61              FLOW             0.00       "weekend_var" "daily_var"
E62              FLOW             0.00       "weekend_var" "daily_var"
E63              FLOW             0.03       "weekend_var" "daily_var"
E64              FLOW             0.00       "weekend_var" "daily_var"
E65              FLOW             0.00       "weekend_var" "daily_var"
E66              FLOW             0.00       "weekend_var" "daily_var"
E67              FLOW             0.00       "weekend_var" "daily_var"
E68              FLOW             0.04       "weekend_var" "daily_var"
E69              FLOW             0.05       "weekend_var" "daily_var"
E7               FLOW             0.00       "weekend_var" "daily_var"
E70              FLOW             0.07       "weekend_var" "daily_var"
E71              FLOW             0.00       "weekend_var" "daily_var"
E73              FLOW             0.00       "weekend_var" "daily_var"
E74              FLOW             0.04       "weekend_var" "daily_var"
E75              FLOW             0.04       "weekend_var" "daily_var"
E76              FLOW             0.03       "weekend_var" "daily_var"
E8               FLOW             0.00       "weekend_var" "daily_var"
E81              FLOW             0.09       "weekend_var" "daily_var"
E82              FLOW             0.12       "weekend_var" "daily_var"
E83              FLOW             0.04       "weekend_var" "daily_var"
E84              FLOW             0.15       "weekend_var" "daily_var"
E85              FLOW             0.11       "weekend_var" "daily_var"
E86              FLOW             0.04       "weekend_var" "daily_var"
E9               FLOW             0.00       "weekend_var" "daily_var"
E91              FLOW             0.02       "weekend_var" "daily_var"
E92              FLOW             0.02       "weekend_var" "daily_var"
E93              FLOW             0.06       "weekend_var" "daily_var"
E94              FLOW             0.03       "weekend_var" "daily_var"
F10              FLOW             0.00       "weekend_var" "daily_var"
F11              FLOW             0.00       "weekend_var" "daily_var"
F110             FLOW             0.04       "weekend_var" "daily_var"
F111             FLOW             0.00       "weekend_var" "daily_var"
F112             FLOW             0.04       "weekend_var" "daily_var"
F113             FLOW             0.04       "weekend_var" "daily_var"
F114             FLOW             0.06       "weekend_var" "daily_var"
F115             FLOW             0.08       "weekend_var" "daily_var"
F116             FLOW             0.08       "weekend_var" "daily_var"
F122             FLOW             0.13       "weekend_var" "daily_var"
F123             FLOW             0.35       "weekend_var" "daily_var"
F13              FLOW             0.26       "weekend_var" "daily_var"
F131             FLOW             0.10       "weekend_var" "daily_var"
F132             FLOW             0.07       "weekend_var" "daily_var"
F133             FLOW             0.03       "weekend_var" "daily_var"
F134             FLOW             0.04       "weekend_var" "daily_var"
F135             FLOW             0.07       "weekend_var" "daily_var"
F14              FLOW             0.20       "weekend_var" "daily_var"
F141             FLOW             0.19       "weekend_var" "daily_var"
F142             FLOW             0.07       "weekend_var" "daily_var"
F143             FLOW             0.18       "weekend_var" "daily_var"
F144             FLOW             0.06       "weekend_var" "daily_var"
F145             FLOW             0.03       "weekend_var" "daily_var"
F146             FLOW             0.16       "weekend_var" "daily_var"
F15              FLOW             0.00       "weekend_var" "daily_var"
F151             FLOW             0.00       "weekend_var" "daily_var"
F152             FLOW             0.05       "weekend_var" "daily_var"
F153             FLOW             0.04       "weekend_var" "daily_var"
F154             FLOW             0.10       "weekend_var" "daily_var"
F16              FLOW             0.00       "weekend_var" "daily_var"
F161             FLOW             0.22       "weekend_var" "daily_var"
F162             FLOW             0.06       "weekend_var" "daily_var"
F163             FLOW             0.12       "weekend_var" "daily_var"
F17              FLOW             0.00       "weekend_var" "daily_var"
F18              FLOW             0.06       "weekend_var" "daily_var"
F181             FLOW             0.03       "weekend_var" "daily_var"
F182             FLOW             0.02       "weekend_var" "daily_var"
F183             FLOW             0.07       "weekend_var" "daily_var"
F184             FLOW             0.05       "weekend_var" "daily_var"
F185             FLOW             0.04       "weekend_var" "daily_var"
F19              FLOW             0.00       "weekend_var" "daily_var"
F191             FLOW             0.02       "weekend_var" "daily_var"
F192             FLOW             0.03       "weekend_var" "daily_var"
F2               FLOW             0.67       "weekend_var" "daily_var"
F20              FLOW             0.00       "weekend_var" "daily_var"
F201             FLOW             0.03       "weekend_var" "daily_var"
F202             FLOW             0.05       "weekend_var" "daily_var"
F204             FLOW             0.02       "weekend_var" "daily_var"
F205             FLOW             0.00       "weekend_var" "daily_var"
F206             FLOW             0.04       "weekend_var" "daily_var"
F207             FLOW             0.00       "weekend_var" "daily_var"
F208             FLOW             0.04       "weekend_var" "daily_var"
F209             FLOW             0.04       "weekend_var" "daily_var"
F21              FLOW             0.02       "weekend_var" "daily_var"
F210             FLOW             0.03       "weekend_var" "daily_var"
F211             FLOW             0.06       "weekend_var" "daily_var"
F212             FLOW             0.03       "weekend_var" "daily_var"
F22              FLOW             0.03       "weekend_var" "daily_var"
F221             FLOW             0.13       "weekend_var" "daily_var"
F222             FLOW             0.03       "weekend_var" "daily_var"
F23              FLOW             0.04       "weekend_var" "daily_var"
F231             FLOW             0.04       "weekend_var" "daily_var"
F24              FLOW             0.07       "weekend_var" "daily_var"
F241             FLOW             0.18       "weekend_var" "daily_var"
F242             FLOW             0.25       "weekend_var" "daily_var"
F243             FLOW             0.71       "weekend_var" "daily_var"
F244             FLOW             0.03       "weekend_var" "daily_var"
F245             FLOW             0.16       "weekend_var" "daily_var"
F246             FLOW             0.02       "weekend_var" "daily_var"
F247             FLOW             0.16       "weekend_var" "daily_var"
F248             FLOW             0.03       "weekend_var" "daily_var"
F249             FLOW             0.05       "weekend_var" "daily_var"
F25              FLOW             0.04       "weekend_var" "daily_var"
F250             FLOW             0.16       "weekend_var" "daily_var"
F251             FLOW             0.15       "weekend_var" "daily_var"
F253             FLOW             0.04       "weekend_var" "daily_var"
F254             FLOW             0.10       "weekend_var" "daily_var"
F255             FLOW             0.02       "weekend_var" "daily_var"
F256             FLOW             0.05       "weekend_var" "daily_var"
F257             FLOW             0.12       "weekend_var" "daily_var"
F26              FLOW             0.10       "weekend_var" "daily_var"
F27              FLOW             0.07       "weekend_var" "daily_var"
F3               FLOW             0.00       "weekend_var" "daily_var"
F31              FLOW             0.10       "weekend_var" "daily_var"
F32              FLOW             0.06       "weekend_var" "daily_var"
F4               FLOW             0.00       "weekend_var" "daily_var"
F41              FLOW             0.09       "weekend_var" "daily_var"
F42              FLOW             0.04       "weekend_var" "daily_var"
F5               FLOW             0.10       "weekend_var" "daily_var"
F51              FLOW             0.13       "weekend_var" "daily_var"
F52              FLOW             0.20       "weekend_var" "daily_var"
F6               FLOW             0.10       "weekend_var" "daily_var"
F61              FLOW             0.00       "weekend_var" "daily_var"
F62              FLOW             0.08       "weekend_var" "daily_var"
F63              FLOW             0.07       "weekend_var" "daily_var"
F64              FLOW             0.09       "weekend_var" "daily_var"
F65              FLOW             0.13       "weekend_var" "daily_var"
F7               FLOW             0.49       "weekend_var" "daily_var"
F71              FLOW             0.07       "weekend_var" "daily_var"
F8               FLOW             0.43       "weekend_var" "daily_var"
F81              FLOW             0.00       "weekend_var" "daily_var"
F82              FLOW             0.11       "weekend_var" "daily_var"
F83              FLOW             0.00       "weekend_var" "daily_var"
F84              FLOW             0.32       "weekend_var" "daily_var"
F85              FLOW             0.17       "weekend_var" "daily_var"
F86              FLOW             0.31       "weekend_var" "daily_var"
F87              FLOW             0.07       "weekend_var" "daily_var"
F88              FLOW             0.09       "weekend_var" "daily_var"
F89              FLOW             0.23       "weekend_var" "daily_var"
F9               FLOW             0.20       "weekend_var" "daily_var"
F90              FLOW             0.08       "weekend_var" "daily_var"
F91              FLOW             0.06       "weekend_var" "daily_var"
F92              FLOW             0.08       "weekend_var" "daily_var"
F93              FLOW             0.12       "weekend_var" "daily_var"
F94              FLOW             0.00       "weekend_var" "daily_var"
F95              FLOW             0.07       "weekend_var" "daily_var"

[CURVES]
;;Name           Type       X-Value    Y-Value   
;;-------------- ---------- ---------- ----------
PW_Bahnhof_QPmax Pump2      0          5         
PW_Bahnhof_QPmax            1000       5         
;
PW_Industrie_Qpmax Pump2      0          25        
PW_Industrie_Qpmax            10         25        
;
Entleerungspumpe_RB_ARA Pump2      0          25        
Entleerungspumpe_RB_ARA            4          25        
;
Entleerungspumpe_FB_ARA Pump2      0          20        
Entleerungspumpe_FB_ARA            4          20        
;
Entleerungspumpe_Usterstrasse Pump2      0          25        
Entleerungspumpe_Usterstrasse            4          25        
;
FB_ARA_Volumen   Storage    0          97.1      
FB_ARA_Volumen              3.5        97.1      
;
PW_Bahnhof_Volumen STORAGE    0          0         
PW_Bahnhof_Volumen            10         10        
;
RÜB_59_Volumen   Storage    0          62.3      
RÜB_59_Volumen              3.21       62.3      
;
RÜB_Industrie_Volumen Storage    0          73.8      
RÜB_Industrie_Volumen            3.66       73.8      
;
;stoCurve_rub128
RÜB_Usterstrasse Storage    0          65.8      
RÜB_Usterstrasse            3.04       65.8      
RÜB_Usterstrasse            3.05       0         
RÜB_Usterstrasse            4.5        0         
;
;Von Plan der Diepold AG, 1999
PW_R+R           Storage    0          5.7       
PW_R+R                      6          5.7       
;
RKB_Morgenthal2  Storage    0          50        
RKB_Morgenthal2             5          50        

[TIMESERIES]
;;Name           Date       Time       Value     
;;-------------- ---------- ---------- ----------
;wastewater transfer flow from Rumlikon (measured at 555)
f02_rumlikon     FILE "f02_Ruml_lps_feb16_apr20.dat"
;
;wastewater transfer flow from Russikon (measured at 11e)
f03_russikon     FILE "f03_Russ_lps_mar16_apr20.dat"

[PATTERNS]
;;Name           Type       Multipliers
;;-------------- ---------- -----------
daily_var        HOURLY     0.19617633 0.208076532 0.149387231 0.594984709 1.596094748 2.030248539
daily_var                   1.816126911 1.392969512 1.258369959 1.095608074 1.169754923 1.186609313
daily_var                   0.858094024 0.755391039 0.913167818 1.13028276 1.362597631 1.483675764
daily_var                   1.261589309 1.194744761 1.068237281 0.637394065 0.316297446 0.324121319
;
weekend_var      WEEKEND    1.797253236 1.274803878 1.515578258 0.645941233 0.439802227 0.595619499
weekend_var                 1.024703403 1.438539881 1.38499375 1.435455354 1.323259837 1.146317206
weekend_var                 1.450448134 1.441372047 1.308542212 1.226950124 1.09990839 0.950301854
weekend_var                 1.060016093 0.962726144 0.974859576 1.175743502 1.573013294 1.186728118
;
NH4_daily_var    HOURLY     0.2   0.15  0.1   1.1   1     1.05 
NH4_daily_var               1.2   1.18  1.2   1.1   1.05  1    
NH4_daily_var               0.85  0.9   0.95  1     0.95  1.05 
NH4_daily_var               1.0   1.0   0.5   0.5   0.3   0.2  
;
CSB_daily_var    HOURLY     0.99  0.3   0.7   0.5   0.85  1    
CSB_daily_var               1.2   1.35  1.45  1.25  1.1   0.9  
CSB_daily_var               0.9   0.94  1.05  1.15  1.11  1.03 
CSB_daily_var               1.01  0.8   1     0.95  1.1   1.03 
;
;Variation of groundwater infiltration during the year
groundwater_infiltration MONTHLY    1.5   1.3   1.1   0.9   0.7   0.5  
groundwater_infiltration            0.5   0.7   0.9   1.1   1.3   1.5  

[REPORT]
;;Reporting Options
SUBCATCHMENTS NONE
NODES ALL
LINKS ALL

[TAGS]

[MAP]
DIMENSIONS 697430.000 248497.000 701700.000 252160.000
Units      None

[COORDINATES]
;;Node           X-Coord            Y-Coord           
;;-------------- ------------------ ------------------
101              699346.424         248489.075        
102a             699285.984         248462.865        
102b             699230.964         248441.135        
102c             699210.684         248460.215        
102d             699340.144         248482.445        
102e             699317.554         248454.935        
102f             699277.444         248406.815        
102g             699250.474         248416.055        
102i             699108.474         248471.185        
102k             699366.734         248493.815        
103a             699108.524         248468.505        
103b             699066.044         248478.535        
103c             699012.924         248504.145        
104a             699256.394         248501.835        
104b             699229.574         248552.155        
104c             699206.954         248574.415        
104d             699189.984         248574.125        
104e             699166.564         248496.855        
105              699145.254         248547.765        
106              699088.314         248551.255        
1100             698729.482         249191.131        
1101             698707.678         249197.338        
1102             698673.696         249220.487        
1103             698638.742         249234.674        
1104             698632.217         249232.690        
1105             698619.042         249212.084        
1106             698616.025         249193.031        
112              699163.534         248438.755        
113              699124.874         248445.605        
114              699085.814         248452.575        
115              699076.674         248471.825        
115a             699080.984         248484.385        
116              699094.094         248522.145        
1169             698751.361         249068.898        
1185             698827.529         249028.497        
1188             698900.031         248984.086        
11d              700086.240         249169.250        
11e              699753.844         248711.125        
11f              699692.724         248675.025        
11g              699660.314         248661.665        
11h              699625.714         248656.405        
12               699600.014         248665.475        
121              699033.254         248577.825        
122              698983.474         248617.695        
123              698942.994         248652.675        
123a             698932.184         248660.835        
124              698895.404         248693.925        
124a             698881.124         248728.785        
125_SBW          698872.384         248728.855        
126_SBW          698814.384         248690.335        
127              698781.094         248730.225        
127.2            698768.524         248710.145        
127a_SBW         698774.494         248439.965        
127b__SBE_SW     698794.169         248485.790        
127c_SW          698822.788         248551.788        
127dSW           698758.784         248624.765        
127e_SBW(SW+RW)  698731.464         248648.385        
127f_SBW         698751.844         248684.155        
127gSW           698824.414         248392.435        
127hSW           698899.794         248338.455        
128a_Blindsch.   698749.746         248782.818        
12a              699565.794         248669.055        
12b              699624.614         248701.765        
13               699518.524         248673.945        
134a_SW          698898.067         248852.951        
134b_            698885.331         248862.518        
134c_SW          698857.597         248891.807        
134SW            698846.264         248891.435        
135MW            698818.744         248869.805        
136MW            698799.060         248853.580        
137              698743.144         248827.095        
138_SBW          698733.641         248813.890        
138_SBW_Entlastung 698731.358         248813.065        
138a_Mess-Sch.   698735.118         248812.709        
13a              699465.824         248679.375        
13b              699567.364         248765.575        
13c              699558.154         248746.545        
13d              699548.134         248725.725        
13e              699543.944         248722.855        
14               699407.904         248685.365        
141a             698809.004         248969.415        
142aSW           698857.874         248898.825        
142SW            698841.374         248928.205        
143              699554.174         248796.065        
144              699509.664         248828.515        
145              699473.484         248874.335        
146              699495.194         248837.305        
147              699469.984         248793.285        
147a             699463.924         248783.195        
148              699498.564         248741.325        
149              699444.854         248749.575        
14a              699350.284         248694.095        
14b              699293.354         248717.555        
15               699243.274         248739.615        
150              699111.734         248694.975        
150a             699061.444         248660.095        
150b             699105.104         248681.655        
150c             699060.985         248657.474        
150e             698903.204         248760.985        
153              699042.774         248647.015        
154_SBW          699005.804         248677.855        
155SW            698967.044         248711.285        
156a             698917.834         248755.805        
156b             698911.784         248749.465        
156SW            698922.184         248751.045        
157_SBW          698903.864         248751.465        
157a_SBW         698912.144         248757.100        
159a             698877.964         248778.865        
159b             698913.114         248842.855        
159c             698892.394         248811.625        
159d             698879.744         248808.565        
159MW            698874.314         248813.545        
15a              699189.624         248759.235        
160MW            698848.604         248838.415        
161              698667.114         248842.605        
161a             698692.314         248831.085        
162              698615.604         248879.639        
163              698553.414         248916.785        
164              698497.394         248953.195        
165              698441.604         248990.065        
166              698384.354         249027.415        
167_SBW          698327.394         249064.765        
17               699370.664         248831.865        
17a              699367.122         248909.128        
17b              699339.364         248874.705        
17c              699396.824         249047.310        
17d              699399.526         249013.571        
17e              699403.011         248979.927        
17f              699382.121         248951.432        
17g              699361.440         248922.220        
18               699337.674         248775.995        
19               699301.614         248721.725        
206              698247.104         249054.865        
206a             698265.924         249060.855        
206b             698284.784         249070.105        
207              697942.674         248955.945        
207a             698021.114         248982.505        
207b             697991.904         248971.135        
207c             697980.734         248971.715        
207e             697940.884         248927.395        
208              698061.424         248998.185        
209              698103.674         249013.745        
210              698152.074         249030.825        
211              698198.704         249045.645        
22a              699005.394         248827.355        
23               698954.224         248788.555        
26_SBW           698987.924         249349.425        
26a              698977.874         249292.355        
27               698968.454         249242.065        
27a              698960.614         249199.635        
27b              698953.434         249161.115        
28               698944.904         249118.405        
284              699125.814         249116.855        
284a             699148.654         249135.275        
284b             699113.294         249116.335        
285              699060.654         249115.205        
286              699008.334         249116.605        
287              698957.294         249121.815        
28a              698942.932         249107.823        
28b              698937.284         249080.015        
28c              698927.774         249038.825        
28d              698916.804         249014.005        
33               698883.829         249258.990        
33a              698895.484         249266.835        
33b              698941.574         249307.435        
34               698843.214         249231.325        
35a              698787.244         249176.195        
35b              698808.894         249205.375        
36               698773.704         249127.665        
36a              698758.374         249079.465        
37               698952.114         248946.385        
372              699102.494         248964.355        
373              699134.704         248950.815        
374              699166.044         248926.545        
375              699197.544         248900.455        
376              699041.254         248986.915        
376a             699051.846         249010.034        
377              699009.074         248990.335        
377a             699039.554         249033.815        
377b             699032.414         248987.685        
377C             699020.652         248988.816        
378              699001.034         248963.545        
379              698977.594         248932.655        
37a              699008.914         248899.605        
38               698893.404         248990.425        
381              699346.916         249077.706        
381a             699399.814         249129.449        
381b             699396.497         249076.783        
382              699316.237         249036.431        
382a             699285.630         248995.157        
382b             699255.588         248954.958        
384              699252.211         248951.591        
385              699229.516         248920.638        
386              699204.384         248886.735        
387              699194.724         248873.375        
388              699160.764         248831.815        
389              699135.794         248789.465        
38a              698856.064         249014.915        
38b              698903.514         248991.795        
39               698816.204         249036.005        
39a              698783.264         249053.365        
40               698750.457         249074.948        
40b              698676.434         249143.525        
40d              698623.204         249187.715        
40dRW            698713.894         249098.895        
40e              698713.288         249091.009        
40f              698700.674         249077.665        
40g              698690.414         249051.105        
40h              698668.014         249029.795        
40i              698628.914         248984.315        
41               698614.664         249187.735        
41a              698592.544         249180.945        
41b              698550.044         249167.065        
42               698503.104         249151.925        
42a              698472.374         249146.945        
446              698659.384         248939.415        
446a             698731.284         248975.775        
446b             698709.324         248994.645        
446c             698663.464         248941.819        
446d             698712.834         249003.985        
446e             698706.614         248899.025        
447              698612.174         248979.565        
447a             698698.864         249056.945        
447b             698668.734         249028.915        
447c             698630.094         248983.255        
447d             698615.811         248976.533        
448              698557.174         249026.675        
448a             698604.874         249108.985        
448b             698568.694         249085.655        
448c             698539.284         249051.485        
448d             698529.009         249050.886        
448e             698622.654         249122.895        
449              698756.532         248887.299        
449a             698900.124         248766.305        
449b             698855.454         248769.455        
449c             698823.854         248808.867        
449e             698789.614         248855.305        
449f             698789.134         248953.337        
449g             698773.874         248922.445        
449j             698792.788         248851.012        
45               698509.014         249068.075        
450              698727.134         248888.835        
450b             698735.284         248850.655        
451              698663.884         248943.245        
451a             698750.163         248981.507        
451b             698731.674         248974.675        
451c             698708.124         248994.775        
451d_            698715.638         249022.383        
451e             698720.964         249015.245        
451f             698711.204         249003.715        
452              698645.000         248956.104        
45a              698461.064         249109.225        
47               698434.924         249135.535        
47a              698362.804         249112.325        
48a_SBW          698287.364         249095.685        
48b_SBW          698287.354         249095.685        
48c_SBW          698294.584         249089.435        
50_SBW           698318.274         249050.255        
508_SW           699334.324         249513.345        
509_SW           699310.844         249479.925        
510_SW           699254.474         249487.395        
52_SW            699225.414         249476.965        
522_SW           699287.654         249560.625        
523_SW           699255.194         249516.895        
524_SW           699426.894         249466.315        
525_SW           699394.294         249470.605        
526_SW           699360.574         249529.155        
526a_SW          699370.984         249511.345        
531_SW           699183.254         249455.815        
532_SW           699133.674         249432.825        
533_SW           699084.024         249409.795        
534_SW           699033.834         249386.525        
55               698663.080         249465.500        
555              698872.784         249563.485        
556              698810.204         249534.615        
557              698759.974         249512.435        
558              698719.014         249493.935        
565              699108.284         249262.105        
566              699057.464         249256.305        
567              699006.584         249250.415        
56a              698946.374         249223.645        
57_SBW           698560.924         249354.115        
571              698887.663         249261.584        
572              698881.144         249266.321        
573              698842.225         249240.319        
574              698830.088         249252.393        
575              698828.704         249266.168        
576              698828.179         249273.430        
576a             698822.087         249339.272        
577_SBW          698589.714         249417.145        
578              698824.024         249269.742        
579              698562.917         249343.679        
579a             698777.325         249259.405        
579b             698684.947         249290.896        
579c             698589.567         249323.571        
579d             698581.599         249337.278        
58_SBW           698259.177         249121.003        
58_Spezialsch._  698259.080         249120.965        
581_SBW          698541.814         249311.005        
582_SBW          698509.674         249248.365        
583_SBW          698470.318         249215.935        
584_SBW          698404.814         249186.155        
585_SBW          698330.364         249152.835        
591              698201.584         249164.145        
591a             698244.474         249130.095        
591bSW_          698363.324         249282.855        
591cSW           698404.104         249259.675        
591dSW           698443.684         249237.465        
591e             698444.154         249222.408        
591f             698407.174         249203.465        
591g             698349.423         249178.028        
591h             698292.174         249152.125        
591i             698262.024         249138.955        
591j             698251.034         249130.435        
591m             698341.104         249302.105        
591n             698303.604         249261.695        
591o             698270.424         249231.025        
591p             698233.844         249195.235        
591q             698206.564         249166.335        
591r             698460.873         249230.608        
592              698158.704         249199.045        
593              698109.624         249239.135        
594              698057.274         249281.575        
596              698150.424         249214.045        
596__Spez.sch.   698152.514         249216.935        
596a             698140.264         249213.525        
596b             698229.369         249264.185        
596c             698215.008         249246.967        
596d             698191.424         249258.785        
596e             698159.969         249219.446        
597.2_SBW        698041.914         249306.695        
597_SBW          698039.934         249303.805        
597a             698032.724         249303.605        
597b             698306.254         249335.685        
597c             698271.874         249296.535        
597d             698257.064         249295.385        
597e             698192.874         249351.275        
597f             698139.294         249397.895        
597g             698115.404         249397.065        
597h             698086.784         249362.435        
597i             698042.274         249485.865        
597j             698078.704         249450.625        
597k             698115.254         249418.135        
597l             698289.894         249425.655        
597m             698249.114         249391.935        
597n             698217.844         249362.425        
598              698024.424         249319.795        
5fSWRW           699434.784         248467.975        
5g_SBW           699402.184         248501.455        
5h               699471.554         248515.105        
6_SBW            699370.484         248533.675        
600_SBW          699488.764         248676.505        
601              699533.964         248560.375        
602              699497.614         248596.565        
603              699480.424         248635.085        
603A_SBW         699473.434         248591.535        
603alt_SBW       699481.254         248627.845        
604              699468.644         248572.325        
604_SBW          699471.174         248571.415        
604a             699391.064         248608.885        
604b             699428.184         248594.645        
604c             699465.114         248579.855        
605              699443.784         248530.265        
605alt           699445.314         248527.515        
606              699417.354         248518.065        
606alt           699416.144         248503.535        
607_SBW          699395.794         248511.155        
608              699615.684         248572.055        
609              699569.084         248562.405        
6a               699332.234         248573.125        
6b               699299.124         248605.575        
7                699292.784         248611.785        
7a               699254.694         248651.025        
8                699216.374         248690.015        
801_SBW          697845.624         249459.745        
801b             697960.214         249442.945        
801c             697912.374         249481.335        
801d             697879.504         249501.855        
801e             697990.014         249570.005        
801f             697966.754         249549.515        
801g             698000.124         249529.545        
801h             697882.384         249565.495        
801i             697852.264         249529.685        
802              697775.294         249514.335        
803_SBW_1        697709.434         249568.935        
803a             697756.037         249626.835        
804              697671.754         249599.375        
805_SBW          697606.064         249653.043        
805a             697922.874         249607.975        
805b             697877.664         249646.495        
805c             697832.534         249684.615        
805d             697789.724         249719.755        
805e             697740.224         249760.235        
805f             697693.124         249757.865        
805g             697654.544         249711.145        
805h             697934.204         249704.415        
805i             697893.324         249654.735        
805j             697761.104         249842.635        
805k             697726.254         249799.945        
8a               699177.534         248729.855        
9                699137.194         248771.046        
K1               699399.664         248508.045        
Kanalanfang      698750.276         249067.535        
Kanalanfang2     698934.804         249039.911        
KNO4983          698847.230         248893.013        
L43              699123.682         248788.659        
L45              699125.764         248783.121        
Node_1           698000.243         249333.264        
Node_12          699395.734         248510.861        
Node_3           698008.862         249339.297        
Node_5           698001.064         249328.708        
Node_7           697531.841         249710.652        
P1005            698862.544         248364.435        
P1053            698677.527         249224.985        
P366             698006.424         249405.915        
R40              698749.939         249074.439        
RA_40a_SBW       698719.674         249106.095        
RA158            698907.596         248765.691        
RA40a            698719.684         249106.095        
RK59_Deckel01    698011.264         249335.475        
RK59_MW          698011.284         249324.235        
RÜB_128          698736.304         248792.295        
SK_102_Steuerschacht 699086.694         248476.255        
SK102.2          699200.284         248460.055        
SK102_SBW        699200.474         248461.985        
SS8              698726.873         248963.284        
VS_22            699049.941         248860.777        
B10              700958.456         250553.293        
B101             700694.945         250588.054        
B102             700668.104         250615.070        
B103             700634.773         250651.209        
B104             700592.670         250696.820        
B105             700548.425         250749.573        
B106             700556.532         250777.693        
B107             700601.617         250829.620        
B11              700993.649         250547.172        
B111             700855.514         250648.755        
B12              701028.077         250567.829        
B121             700530.926         250751.415        
B122             700471.982         250732.688        
B123             700435.142         250732.074        
B124             700403.521         250719.180        
B13              701050.264         250594.606        
B131             700706.750         250476.786        
B132             700666.967         250472.196        
B133             700631.774         250469.901        
B133R            700653.195         250463.015        
B134             700618.002         250521.925        
B134R            700638.659         250494.383        
B135             700602.701         250560.178        
B135R            700616.472         250548.702        
B136             700593.520         250579.305        
B136R            700601.936         250578.540        
B137             700580.514         250597.666        
B138             700577.454         250604.552        
B138R            700579.749         250611.438        
B139             700547.616         250630.564        
B139R            700551.442         250640.510        
B140             700517.779         250664.992        
B141             700503.243         250666.522        
B142             700476.465         250641.275        
B143             700435.917         250619.853        
B151             700621.063         250489.027        
B152             700575.159         250482.142        
B153             700563.683         250506.624        
B161             700603.466         250593.841        
B171             700543.026         250576.245        
B172             700504.008         250549.467        
B173             700486.411         250574.715        
B181             700523.899         250600.727        
B191             700586.705         250648.227        
B2               700735.822         250433.177        
B201             700681.503         250476.786        
B202             700673.852         250510.449        
B203             700653.960         250508.154        
B204             700649.370         250539.522        
B205             700670.027         250556.353        
B21              700819.215         250556.353        
B212R            700522.369         250348.255        
B213R            700584.340         250362.791        
B214R            700651.665         250379.623        
B215R            700699.099         250392.629        
B22              700862.823         250594.606        
B3               700744.591         250465.605        
B31              700903.372         250607.612        
B4               700757.244         250469.901        
B41              700960.752         250605.317        
B42              700983.704         250625.974        
B43              700960.752         250649.691        
B5               700800.088         250483.672        
B51              700751.433         250487.358        
B52              700754.942         250526.128        
B53              700722.663         250558.758        
B54              700726.698         250568.406        
B55              700743.714         250582.090        
B56              700771.257         250604.720        
B57              700803.009         250641.560        
B58              700783.361         250674.892        
B59              700793.361         250703.838        
B6               700842.932         250521.925        
B60              700819.675         250702.610        
B61              700851.077         250725.591        
B62              700869.146         250725.240        
B63              700911.249         250681.032        
B7               700878.890         250557.118        
B71              700851.708         250744.247        
B72              700829.911         250770.196        
B73              700791.853         250807.908        
B74              700751.718         250851.502        
B8               700912.552         250582.365        
B8.1             700926.324         250588.486        
B81              700772.823         250681.278        
B82              700724.039         250713.454        
B83              700738.917         250738.711        
B84              700753.448         250765.352        
B85              700731.305         250790.955        
B86              700705.702         250815.174        
B9               700939.330         250585.425        
B91              700677.678         250739.057        
B92              700650.345         250758.086        
B93              700642.387         250769.850        
B94              700663.492         250798.221        
B95              700685.635         250780.921        
C10              700751.889         250294.701        
C11              700748.063         250342.135        
C2               700813.094         250121.031        
C22R             700687.623         250077.422        
C23R             700670.027         250094.254        
C24R             700645.545         250121.796        
C25R             700611.117         250169.230        
C3               700787.847         250132.507        
C31              700813.094         250136.332        
C31R             700915.613         250181.471        
C32              700831.456         250169.230        
C32R             700919.438         250194.477        
C33              700833.751         250189.887        
C33R             700919.438         250206.718        
C34              700849.817         250222.020        
C34R             700943.920         250231.200        
C35              700836.046         250270.219        
C35R             700922.498         250246.502        
C36              700830.691         250306.942        
C36R             700920.203         250254.917        
C37              700858.998         250325.303        
C37R             700882.715         250277.869        
C38              700875.064         250335.249        
C38R             700823.805         250302.351        
C39              700868.179         250377.328        
C39R             700765.660         250303.116        
C4               700744.238         250149.338        
C40              700864.353         250428.587        
C40R             700754.184         250336.014        
C41              700876.594         250446.184        
C41R             700751.124         250358.201        
C43              700878.125         250481.377        
C44              700907.962         250493.618        
C5               700726.642         250159.284        
C51              700695.274         250179.176        
C51R             700823.040         250311.532        
C52              700685.328         250188.357        
C52R             700829.925         250317.653        
C53              700663.141         250176.881        
C53R             700851.347         250338.309        
C54              700649.370         250200.598        
C54R             700839.106         250372.737        
C55R             700838.341         250407.165        
C6               700715.931         250179.941        
C61              700711.340         250102.669        
C7               700711.340         250204.423        
C71              700847.522         250373.502        
C72              700846.757         250406.400        
C8               700718.991         250224.315        
C9               700744.238         250267.923        
CC42             700875.829         250464.545        
D10              700985.857         250318.530        
D101             701202.103         250233.037        
D101R            701206.503         250229.266        
D11              700956.941         250335.503        
D111             701126.668         250143.773        
D111R            701122.897         250140.002        
D112             701163.757         250118.629        
D112R            701158.728         250114.857        
D113             701149.299         250082.169        
D113RR           701142.384         250082.797        
D114             701173.815         250065.196        
D114R            701170.672         250058.910        
D121             701077.007         250133.087        
D121R            701085.179         250127.429        
D131R            701049.977         250200.978        
D132R            701090.208         250241.838        
D133R            701111.581         250238.695        
D134R            701126.668         250241.838        
D135R            701149.927         250266.983        
D136R            701190.788         250306.586        
D137R            701212.161         250304.072        
D141R            701133.583         250216.693        
D151R            701144.898         250278.927        
D2               700931.167         250178.976        
D21              700960.084         250232.409        
D22              700925.510         250260.697        
D23              700899.108         250277.669        
D24              700870.820         250288.985        
D3               700961.970         250170.804        
D30R             701003.459         250163.889        
D31              701009.745         250170.175        
D31R             701025.460         250165.146        
D32              701049.977         250189.663        
D32R             701050.605         250183.376        
D33              701081.408         250222.351        
D34              701111.581         250256.925        
D35              701109.067         250265.726        
D36              701082.665         250299.043        
D37              701063.806         250330.474        
D38              701050.605         250382.649        
D39              701087.694         250429.167        
D4               700999.687         250185.891        
D40              701112.210         250454.940        
D41              701148.670         250498.944        
D42              701175.072         250536.661        
D5               700994.658         250203.492        
D51              701033.633         250400.879        
D52              700990.258         250409.051        
D53              700988.372         250472.542        
D54              700995.915         250485.743        
D6               700968.885         250228.637        
D61              701085.179         250441.111        
D62              701073.864         250471.913        
D63              701088.951         250486.371        
D64              701122.897         250514.659        
D65              701104.667         250541.061        
D66              701140.498         250571.864        
D7               700989.001         250262.583        
D71              701072.607         250514.031        
D8               700999.687         250282.070        
D81              701133.583         250257.554        
D82              701156.214         250283.327        
D83              701161.871         250287.727        
D84              701197.074         250318.530        
D85              701235.420         250349.332        
D86              701254.278         250369.448        
D87              701273.766         250390.821        
D88              701310.226         250466.256        
D89              701285.709         250475.056        
D9               701005.345         250298.414        
D90R             701062.549         250184.634        
D91              701071.978         250190.291        
D91R             701072.607         250180.862        
D92              701101.524         250165.775        
D92R             701101.524         250157.603        
D93              701111.581         250168.290        
D94              701139.869         250206.635        
D94R             701148.041         250199.092        
D95              701157.471         250198.463        
D95R             701168.786         250200.978        
D96              701198.331         250170.175        
D96R             701190.788         250163.261        
E10              701169.356         249112.883        
E11              701184.926         249059.947        
E12              701206.723         249001.822        
E13              701226.444         248938.506        
E14              701239.937         248948.886        
E15              701278.342         248972.759        
E16              701329.201         248992.480        
E17              701354.112         249027.770        
E18              701362.416         249069.289        
E2               701063.485         249421.155        
E3               701081.130         249385.865        
E4               701102.927         249324.625        
E41              701069.713         249442.952        
E44              701195.305         249470.977        
E45              701225.406         249482.395        
E46              701242.013         249436.725        
E47              701251.355         249390.017        
E48              701262.772         249390.017        
E49              701286.645         249415.965        
E5               701116.421         249277.918        
E51              701248.241         249503.154        
E6               701115.383         249255.083        
E61              701138.218         249235.361        
E62              701167.280         249246.779        
E63              701209.837         249260.272        
E64              701232.672         249265.462        
E65              701260.696         249278.955        
E66              701273.152         249269.614        
E67              701291.835         249215.640        
E68              701298.063         249210.450        
E69              701317.784         249208.375        
E7               701123.686         249240.551        
E70              701354.112         249214.602        
E71              701357.226         249205.261        
E73              701354.112         249164.780        
E74              701366.568         249142.983        
E75              701376.947         249118.073        
E76              701377.985         249104.579        
E8               701141.332         249178.274        
E81              701297.025         249290.373        
E82              701334.391         249304.904        
E83              701358.264         249300.753        
E84              701389.403         249308.018        
E85              701423.655         249310.094        
E86              701453.756         249326.701        
E9               701150.673         249174.122        
E91              701334.391         249320.474        
E92              701352.036         249323.588        
E93              701363.454         249336.043        
E94              701377.985         249331.891        
F10              700873.963         249815.634        
F101             701227.907         250004.172        
F102             701292.435         250010.038        
F103             701360.315         250007.943        
F104             701413.949         249994.535        
F105             701462.973         249960.595        
F106             701546.776         249895.648        
F107             701594.543         249854.584        
F108             701613.818         249835.729        
F109             701638.958         249818.549        
F11              700893.450         249822.548        
F110             701680.860         249808.912        
F111             701700.134         249785.028        
F112             701703.067         249731.395        
F113             701718.152         249700.388        
F114             701761.310         249693.265        
F115             701778.071         249669.800        
F116             701791.060         249636.698        
F117             701799.440         249600.663        
F118             701821.229         249567.980        
F119             701842.599         249540.325        
F120             701857.683         249514.765        
F121             701884.081         249498.843        
F122             701915.088         249493.395        
F123             701936.038         249477.054        
F13              700916.172         249786.439        
F131             701753.768         249780.838        
F132             701766.338         249756.116        
F133             701798.602         249761.983        
F134             701803.211         249736.423        
F135             701841.342         249723.014        
F14              700927.589         249755.301        
F141             700933.341         249907.380        
F142             700912.809         249927.912        
F143             700930.827         249955.148        
F144             700951.777         249967.718        
F145             700944.654         249974.841        
F146             700955.130         249984.059        
F15              700939.007         249734.541        
F151             700986.136         250007.943        
F152             700973.985         250022.190        
F153             700985.717         250037.274        
F154             701005.411         250048.168        
F16              700983.639         249737.655        
F161             701012.953         249820.644        
F162             701059.883         249760.307        
F163             701078.738         249742.708        
F17              701000.246         249732.466        
F171             700900.365         249804.947        
F172             700903.508         249791.117        
F173             700924.253         249732.656        
F174             700939.340         249705.625        
F175             700967.123         249647.930        
F176             700993.072         249589.805        
F177             701013.831         249536.869        
F18              701012.701         249765.680        
F181             701152.904         249965.204        
F182             701167.150         249940.482        
F183             701222.041         249953.052        
F184             701232.935         249924.141        
F185             701250.534         249894.810        
F19              701026.195         249796.819        
F191             701174.273         249907.380        
F192             701176.787         249872.602        
F2               700547.709         249820.034        
F20              701037.612         249810.312        
F201             701060.447         249836.261        
F202             701099.889         249828.995        
F204             701125.838         249766.718        
F205             701150.749         249743.883        
F206             701168.394         249725.200        
F207             701206.799         249737.655        
F208             701246.241         249750.111        
F208R            701250.107         249750.837        
F209             701284.645         249783.325        
F209R            701286.251         249780.459        
F21              701042.802         249817.578        
F210             701316.822         249810.312        
F210R            701319.406         249807.091        
F211             701296.063         249842.489        
F211R            701299.839         249844.594        
F212             701286.721         249863.248        
F212R            701289.513         249864.432        
F22              701053.182         249863.248        
F221             701234.824         249788.515        
F221R            701238.965         249790.242        
F222             701218.216         249832.109        
F222R            701227.280         249823.940        
F23              701065.637         249896.462        
F231             701339.657         249831.071        
F231R            701342.234         249828.288        
F24              701078.092         249923.449        
F241             700660.861         249843.293        
F242             700707.379         249862.151        
F243             700768.355         249886.039        
F244             700811.101         249907.412        
F245             700807.958         249938.214        
F246             700818.644         249952.044        
F247             700820.530         249981.589        
F248             700820.530         250002.334        
F249             700829.960         250016.163        
F25              701078.092         249939.019        
F250             700834.989         250043.823        
F251             700830.588         250067.082        
F253             700846.304         250095.998        
F254             700865.791         250086.569        
F255             700886.535         250077.768        
F256             700846.304         250122.400        
F257             700879.621         250139.373        
F26              701074.979         249983.651        
F27              701092.624         249998.182        
F3               700601.142         249829.463        
F31              701107.155         249913.070        
F32              701109.231         249885.045        
F4               700606.799         249819.405        
F41              701106.117         249948.360        
F42              701131.028         249946.284        
F5               700623.143         249793.003        
F51              700893.535         249837.824        
F51R             700897.264         249838.302        
F52              700876.774         249879.306        
F52R             700875.559         249873.339        
F6               700668.404         249793.632        
F61              700678.462         249749.000        
F62              700736.924         249721.340        
F63              700799.786         249693.681        
F64              700818.644         249698.082        
F64R             700819.436         249695.360        
F65              700867.048         249720.083        
F65R             700868.427         249716.754        
F66R             700908.116         249727.607        
F67R             700908.116         249738.149        
F68R             700883.001         249792.101        
F69R             700897.574         249821.248        
F7               700730.638         249795.518        
F71              700794.757         249749.000        
F71R             700799.902         249749.622        
F8               700794.757         249807.461        
F81              700909.876         249827.349        
F81R             700904.706         249821.248        
F82              700929.989         249845.785        
F82R             700918.039         249798.303        
F83              700964.348         249873.440        
F83R             700936.953         249811.636        
F84              700976.499         249874.278        
F84R             700962.999         249830.240        
F85              701011.277         249903.609        
F85R             700978.502         249814.426        
F86              701013.372         249948.862        
F86R             700982.533         249810.085        
F87              700987.813         249979.869        
F88              700988.651         249999.563        
F89              701012.953         250019.675        
F9               700845.675         249804.947        
F90              701036.837         250035.598        
F91              701030.133         250061.158        
F92              701039.351         250073.309        
F93              701106.812         250032.665        
F94              701142.009         250014.647        
F95              701169.245         250010.457        
FF203            701115.459         249782.287        
10_              700209.659         249499.920        
10a              700194.230         249457.590        
10b              700190.350         249412.720        
10c              700191.320         249367.760        
11               700195.120         249344.970        
11a              700163.350         249295.350        
11b              700131.260         249245.900        
11c              700100.330         249210.600        
2c               700286.399         249774.042        
2d               700280.110         249673.110        
2e               700267.020         249639.260        
2f               700240.529         249571.064        
411              700503.890         249213.120        
412              700448.420         249215.980        
413              700388.170         249218.370        
414              700323.350         249220.930        
415              700258.670         249223.580        
416              700194.300         249230.860        
rus4             700514.199         249814.436        
103d_SBW         698966.454         248543.055        
ARA_Fehraltorf   698011.981         249347.505        
Bacheinlauf1     698606.742         248974.131        
Bacheinlauf2     698606.886         248972.412        
Bacheinlauf30    697979.196         249338.970        
Bacheinlauf47    698676.157         248825.823        
Node_8           697526.013         249709.647        
Notentlastung_48b 698269.391         249098.665        
Outfall_Chronentobelbach 700457.339         250315.357        
Outfall_R_Dorfbach 700906.432         250174.585        
D4R              701004.716         250188.405        
Outfall_RÜB_D    700828.768         250094.439        
F207R            701257.445         249710.616        
R63F             700811.375         249665.283        
outfall_wilhof   700973.183         249465.787        
Outfall_R_Dorfbach1 700905.080         250178.823        
D4R1             701003.512         250194.711        
rohrbach         700438.495         249783.063        
FB_ARA           697976.848         249364.497        
RB_59            698009.108         249331.745        
RÜB_Usterstrasse 698729.514         248794.226        
RÜB+PW80_Industrie 697537.004         249710.425        
GU63_Pumpensch.  698780.304         248718.385        
RÜB_Kronentobel  700740.413         250401.045        
RÜB_Berggasse    700836.811         250105.730        
RÜ_Poststrasse   700912.309         250169.547        
RÜB_Wilhof       701036.006         249480.811        
RKB_Morgenthal   700502.605         249830.804        

[VERTICES]
;;Link           X-Coord            Y-Coord           
;;-------------- ------------------ ------------------
102c-L188        699200.484         248461.982        
1103-1104        698636.939         249234.126        
11g-11h          699627.575         248656.688        
127cSW-127dSW    698817.955         248557.299        
134c_SW-134SW    698848.490         248892.866        
134SW-135MW      698832.408         248880.545        
136MW-137        698798.677         248853.398        
136MW-137        698793.084         248850.749        
142aSW-134RW     698846.274         248891.452        
142aSW-134RW(39196) 698857.713         248898.738        
142SW-142aSW     698857.868         248898.836        
157a-L87         698908.132         248754.369        
160MW-135MW      698818.749         248869.800        
167-48           698313.943         249074.879        
211-206          698216.316         249049.000        
40-RA40a.1       698719.978         249105.788        
40-RA40a.1       698719.680         249106.090        
447d-447         698614.447         248977.670        
449c-449d        698793.084         248850.749        
451b-451c        698708.878         248994.132        
531_SW-532_SW    699160.254         249445.150        
532_SW-533_SW    699107.044         249420.473        
5494-597a        698148.308         249215.764        
57-581           698556.859         249344.945        
576-578          698827.388         249272.728        
576-578          698825.617         249271.155        
579c-579d        698588.536         249325.345        
585.2-591i       698259.171         249121.008        
591e-591f        698443.407         249222.025        
591j-591a        698248.317         249130.294        
591q-E98         698206.317         249166.226        
596.3-596a       698148.308         249215.764        
801a-801b        697962.566         249441.061        
801d-801.1       697875.122         249496.409        
803a-803.1       697726.683         249590.366        
805g-805.1       697613.528         249661.989        
HAL119(53797)    698719.978         249105.788        
HAL1524          698634.538         248960.581        
HAL159           698528.564         249051.269        
HAL1600          698719.680         249106.090        
HAL1748          698038.307         249305.482        
HAL18            698664.353         248942.842        
HAL19            698634.538         248960.581        
HAL21            698614.447         248977.670        
HAL32            698708.878         248994.132        
HAL32            698664.353         248942.842        
HAL3294          699359.397         249528.446        
HAL35            698900.612         248985.018        
HAL775           698259.171         249121.008        
HAL775           698248.317         249130.294        
HAL775           698206.317         249166.226        
Kanalanfang2-1188 698900.612         248985.018        
L114-L107        698822.768         248551.742        
L119-160MW       698851.629         248835.489        
L129-150c        698909.086         248753.088        
L129-150c        698908.132         248754.369        
L130-L88         698909.086         248753.088        
L164-L163        699078.007         248475.710        
L166-103b        699078.007         248475.710        
L182-L215        699395.942         248510.930        
L199-L206        699398.247         248507.432        
L199-L206        699397.474         248508.606        
L199-L206        699395.942         248510.930        
L226-L184        699233.363         248438.052        
L235-605alt      699448.405         248532.762        
L409-L411        699225.418         249476.970        
L418-L423        699324.590         249499.491        
L422-L411        699254.471         249487.394        
L477-L234        699481.188         248627.473        
L477-L234        699474.820         248591.823        
L489-L474        699474.820         248591.823        
L489-L474        699473.818         248591.615        
L499-102k        699398.247         248507.432        
L78-L60          698038.307         249305.482        
Link_1           698004.314         249329.935        
Link_2           698006.650         249341.038        
Link_4           698006.650         249341.038        
P1053-E1119      698674.247         249221.134        
B2-RÜB_Kronentobel 700745.003         250398.750        
C42-C41          700877.359         250443.123        
C35-C34          700850.582         250218.959        
C54R-C53R        700851.347         250334.484        
D30R-D4R         701005.345         250190.920        
10-10a           700196.971         249465.108        
10b-10c          700190.795         249392.076        
2f-10            700217.630         249518.991        
PW80_Industrie   697613.528         249661.989        
PW80_Industrie   697726.683         249590.366        
PW80_Industrie   697875.122         249496.409        
PW80_Industrie   697962.566         249441.061        
EntleerungspumpeRÜBUsterstrasse 698732.754         248792.767        
RÜB_59_A         698004.314         249329.935        
Weir_RUBmorgental_inflow 700260.296         249919.061        

[Polygons]
;;Subcatchment   X-Coord            Y-Coord           
;;-------------- ------------------ ------------------
A0005RT          699270.999         248460.925        
A0010RT          699223.241         248462.206        
A0015RT          699461.218         248620.318        
A0020RT          699476.870         248654.283        
A0025RT          699554.571         248616.141        
A0030RT          699446.144         248545.734        
A0035RT          699350.198         248507.447        
A0040RT          699381.844         248530.916        
A0045RT          699322.287         248486.030        
A0065RT          699568.539         248747.689        
A0070RT          699631.253         248722.593        
A0075RT          699708.927         248731.703        
A0080RT          699566.276         248681.175        
A0085RT          699562.712         248665.318        
A0090RT          699611.994         248660.242        
A0095RT          699654.060         248602.186        
A0100RT          699609.881         248593.123        
A0105RT          699582.738         248531.380        
A0110RT          699558.547         248565.191        
A0115RT          699524.471         248516.276        
A0120RT          699490.969         248464.235        
A0125RT          699384.140         248486.955        
A0130RT          699349.755         248477.576        
A0135RT          699345.894         248448.854        
A0140RT          699322.956         248471.585        
A0145RT          699298.388         248417.006        
A0150RT          699266.203         248412.909        
A0155RT          699249.544         248432.182        
A0160RT          699509.557         248668.920        
A0165RT          699530.503         248701.197        
B0005RT          699183.563         249031.875        
B0010RT          699235.647         249004.249        
B0015RT          699325.727         249012.963        
B0016RT          699411.773         249048.386        
B0020RT          699457.908         249031.841        
B0025RT          699472.953         248919.543        
B0030RT          699387.195         248908.785        
B0035RT          699415.309         248873.521        
B0040RT          699499.270         248873.287        
B0045RT          699439.615         248835.400        
B0050RT          699473.393         248817.535        
B0055RT          699481.840         248798.387        
B0060RT          699557.491         248814.853        
B0065RT          699519.200         248758.080        
B0066RT          699503.116         248726.285        
B0070RT          699485.903         248696.674        
B0075RT          699481.921         248778.558        
B0080RT          699487.688         248759.455        
B0085RT          699474.689         248738.901        
B0090RT          699439.208         248776.187        
B0095RT          699322.109         248754.044        
B0100RT          699400.863         248807.859        
B0105RT          699326.078         248857.794        
B0110RT          699241.361         248888.543        
B0115RT          699033.324         248752.661        
B0120RT          699046.666         248785.835        
B0125RT          699054.065         248830.570        
B0126RT          699077.122         248785.070        
B0130RT          699020.033         248844.788        
B0135RT          698976.440         248822.842        
B0140RT          699435.541         248726.252        
B0145RT          699195.105         248708.338        
B0146RT          699154.196         248739.576        
B0150RT          699262.200         248918.529        
B0155RT          699185.120         248923.472        
B0160RT          699209.711         248858.757        
B0161RT          699159.180         248829.169        
B0165RT          699104.306         248827.736        
B0170RT          699129.380         248757.405        
B0175RT          699172.122         248770.116        
B0180RT          699224.271         248772.234        
B0181RT          699261.016         248803.689        
B0182RT          699246.336         248721.737        
B0185RT          699099.883         248883.087        
B0186RT          699090.423         248867.421        
B0190RT          699072.108         248852.530        
B0195RT          699087.292         248840.278        
B0200RT          699093.755         248794.530        
B0205RT          699108.000         248763.935        
B0210RT          699112.813         248719.965        
B0215RT          699072.798         248751.819        
B0220RT          699073.912         248709.297        
B0225RT          698972.705         248776.806        
B0226RT          699012.242         248774.525        
B0227RT          698940.151         248772.445        
B0230RT          699134.562         248943.204        
B0235RT          698906.961         248707.015        
B0245RT          698956.730         248657.677        
B0255RT          699259.353         248479.010        
B0260RT          699222.630         248522.427        
B0265RT          699187.015         248501.369        
B0280RT          699023.210         248619.321        
B0290RT          699067.464         248582.496        
B0295RT          699056.547         248656.236        
B0300RT          699107.834         248645.115        
B0305RT          699091.111         248613.311        
B0310RT          699037.135         248671.090        
B0315RT          699006.100         248716.442        
B0320RT          698951.603         248744.921        
B0325RT          698894.630         248738.758        
B0330RT          699232.469         248661.050        
B0335RT          699178.925         248598.578        
B0340RT          699152.990         248664.415        
B0345RT          699125.126         248563.437        
B0350RT          699180.240         248551.877        
B0355RT          699253.815         248575.766        
B0360RT          699316.845         248612.211        
B0365RT          699330.961         248687.248        
B0370RT          699387.289         248680.806        
B0375RT          699386.023         248597.015        
B0380RT          699298.396         248520.184        
B0390RT          698791.887         248745.901        
B0405RT          699097.985         248548.851        
B0415RT          698956.285         248701.695        
B0440RT          699442.163         248691.940        
B0460R           699140.487         248516.692        
B0465R           699120.214         248492.345        
B0470R           699048.368         248521.477        
B0475R           698732.462         248811.074        
B0480R           698830.596         248766.962        
B0490R           699120.584         248537.147        
B0520RT          699336.133         248807.714        
C0010RT          698539.437         249145.556        
C0020RT          698940.914         248961.093        
C0040RT          698731.863         249077.899        
C0050RT          698713.347         249141.220        
C0055RT          698672.325         249189.153        
C0060RT          698687.402         249233.614        
C0065RT          698748.204         249212.416        
C0066RT          698759.492         249163.500        
C0070RT          698806.944         249142.378        
C0075RT          698777.772         249203.087        
C0080RT          698795.593         249095.749        
C0081RT          698752.163         249124.847        
C0085RT          698853.645         248992.861        
C0120RT          698832.233         249230.909        
C0125RT          698889.008         249171.227        
C0130RT          698888.874         249219.544        
C0135RT          699051.869         249145.884        
C0140RT          699169.127         249144.619        
C0145RT          699093.587         249114.240        
C0150RT          699090.499         249028.769        
C0155RT          699040.320         249035.969        
C0160RT          698145.674         249061.924        
C0165RT          698094.825         249046.151        
C0170RT          698020.733         249018.446        
C0175RT          697915.718         248973.885        
C0180RT          697969.240         248948.699        
C0185RT          699016.510         249027.906        
C0190RT          699454.483         249127.830        
C0200RT          699076.020         248926.511        
C0205RT          698987.663         249188.456        
C0210RT          698940.779         249159.143        
C0215RT          698997.508         249136.315        
C0220RT          698846.192         249120.224        
C0225RT          698888.601         249114.384        
C0230RT          698923.402         249104.132        
C0235RT          698962.299         249090.965        
C0236RT          698952.371         249046.784        
C0237RT          698972.700         249058.297        
C0240RT          699020.359         248999.906        
C0245RT          699032.295         248969.730        
C0250RT          698984.846         249017.643        
C0255RT          698989.541         248960.821        
C0260RT          699011.537         248918.459        
C0265RT          699051.833         248892.644        
C0270RT          699052.812         248870.606        
C0275RT          699040.524         248870.670        
C0280RT          698909.738         249018.180        
C0281RT          698835.769         249056.993        
C0285RT          698896.527         249077.767        
C0290RT          699012.916         249080.717        
C0295RT          699290.605         249160.852        
C0320RT          698826.416         249181.786        
C0325RT          698720.293         249087.064        
C0385R           698770.916         248972.776        
C0390R           698754.210         249033.792        
C0400R           698779.074         248855.032        
C0425R           698713.479         248836.679        
C0450R           698743.956         249004.834        
C0455R           698700.774         249030.550        
C0505R           698669.225         248981.006        
C0550RT          699320.734         249121.874        
D0040RT          698904.508         249250.637        
D0045RT          698861.102         249271.138        
D0050RT          698936.260         249218.217        
D0055RT          698955.576         249253.831        
D0060RT          698960.594         249286.835        
D0065RT          698917.045         249298.358        
D0105RT          699066.443         249291.483        
D0110RT          699333.261         249367.726        
D0115RT          699305.231         249242.093        
D0120RT          699170.303         249227.043        
D0125RT          699063.656         249217.813        
D0140RT          698954.223         249341.846        
D0145RT          699002.856         249306.777        
D0150RT          698986.532         249239.457        
D0405RT          699182.908         249328.129        
E0010RT          698247.128         249480.500        
E0015RT          698239.940         249404.303        
E0020RT          698338.567         249298.986        
E0030RT          698205.485         249364.319        
E0035RT          698242.503         249319.322        
E0040RT          698276.661         249388.315        
E0045RT          698241.803         249371.193        
E0050RT          698286.304         249288.030        
E0055RT          698306.018         249336.787        
E0060RT          698253.263         249217.200        
E0070RT          698289.509         249250.287        
E0085RT          698078.114         249514.324        
E0090RT          697971.829         249392.283        
E0095RT          698109.006         249348.870        
E0135RT          698186.536         249412.413        
E0145RT          698274.680         249428.165        
E0150RT          698168.903         249323.122        
E0155RT          698185.062         249245.528        
E0160RT          698233.586         249266.225        
E0165RT          698130.073         249264.259        
E0170RT          698218.920         249182.075        
E0175RT          698144.610         249485.527        
E0180RT          698082.423         249280.652        
E0190RT          698214.154         249355.620        
F0005RT          697797.240         249857.329        
F0010RT          697937.544         249729.794        
F0015RT          698030.807         249613.588        
F0020RT          697923.656         249621.598        
F0025RT          697852.926         249680.111        
F0030RT          697885.370         249654.840        
F0035RT          697820.960         249714.993        
F0040RT          697766.405         249744.443        
F0045RT          697719.406         249812.001        
F0050RT          697664.821         249739.096        
F0055RT          697630.870         249698.021        
F0060RT          697569.347         249713.834        
F0065RT          697671.228         249629.900        
F0070RT          697762.901         249632.824        
F0075RT          697786.903         249535.716        
F0080RT          697861.915         249571.865        
F0085RT          697854.522         249488.784        
F0090RT          697875.166         249524.926        
F0095RT          697893.767         249490.050        
F0105RT          697953.264         249520.207        
F0110RT          698042.978         249414.124        
F0120RT          698042.879         249544.436        
F0125RT          697980.773         249463.154        
Kempttalstrasse  699620.916         248278.819        
Sub_B10          700982.243         250555.012        
Sub_B101         700709.563         250582.625        
Sub_B102         700673.896         250621.744        
Sub_B103         700626.148         250633.825        
Sub_B104         700608.890         250706.885        
Sub_B106         700545.034         250790.875        
Sub_B107         700611.766         250839.198        
Sub_B11          700987.996         250528.549        
Sub_B111         700858.559         250659.712        
Sub_B12          701019.636         250575.147        
Sub_B13          701050.126         250601.034        
Sub_B131         700726.246         250476.199        
Sub_B132         700669.869         250480.802        
Sub_B133R        700662.966         250457.215        
Sub_B134R        700638.804         250506.114        
Sub_B135         700592.207         250551.560        
Sub_B135R        700627.874         250540.630        
Sub_B136         700593.520         250579.305        
Sub_B136R        700586.454         250563.641        
Sub_B138         700557.690         250601.034        
Sub_B138R        700595.659         250613.115        
Sub_B139         700535.830         250625.771        
Sub_B139R        700559.991         250638.427        
Sub_B140         700512.819         250653.384        
Sub_B141         700505.916         250649.357        
Sub_B142         700465.071         250657.986        
Sub_B143         700441.485         250640.153        
Sub_B151         700612.917         250491.732        
Sub_B152         700566.319         250478.500        
Sub_B153         700553.088         250509.565        
Sub_B161         700611.766         250583.201        
Sub_B171         700552.513         250560.190        
Sub_B172         700505.340         250557.888        
Sub_B173         700485.206         250582.050        
Sub_B181         700517.996         250612.540        
Sub_B191         700583.002         250659.712        
Sub_B201         700688.278         250480.802        
Sub_B202         700681.375         250514.743        
Sub_B203         700649.159         250514.743        
Sub_B204         700648.009         250548.109        
Sub_B205         700666.993         250562.491        
Sub_B21          700832.672         250552.711        
Sub_B31          700907.458         250620.593        
Sub_B4           700790.102         250436.505        
Sub_B41          700950.603         250613.115        
Sub_B42          700998.926         250632.674        
Sub_B43          700959.808         250668.917        
Sub_B5           700799.881         250498.060        
Sub_B51          700769.967         250484.253        
Sub_B52          700770.542         250519.920        
Sub_B54          700734.300         250555.587        
Sub_B55          700753.284         250565.942        
Sub_B56          700769.392         250589.529        
Sub_B57          700813.688         250653.959        
Sub_B59          700798.731         250688.476        
Sub_B6           700843.027         250543.507        
Sub_B60          700825.769         250689.626        
Sub_B61          700836.124         250725.869        
Sub_B62          700880.995         250737.950        
Sub_B7           700863.161         250560.765        
Sub_B71          700837.274         250737.374        
Sub_B72          700817.715         250756.934        
Sub_B73          700780.897         250802.380        
Sub_B74          700738.327         250845.526        
Sub_B8           700895.952         250581.475        
Sub_B81          700773.419         250689.626        
Sub_B82          700718.192         250723.568        
Sub_B83          700738.327         250751.756        
Sub_B84          700766.515         250756.358        
Sub_B85          700748.682         250788.574        
Sub_B9           700924.716         250603.910        
Sub_B91          700686.552         250740.826        
Sub_B93          700644.557         250784.547        
Sub_B94          700683.676         250799.504        
Sub_B95          700698.633         250769.014        
Sub_C10          700767.194         250281.096        
Sub_C11          700730.205         250338.371        
Sub_C2           700813.094         250121.031        
Sub_C25R         700631.168         250162.968        
Sub_C3           700767.194         250114.047        
Sub_C31          700807.360         250141.389        
Sub_C32          700839.575         250174.755        
Sub_C33          700827.494         250200.643        
Sub_C34          700838.425         250218.476        
Sub_C35          700853.382         250266.224        
Sub_C36          700840.150         250308.219        
Sub_C37          700864.887         250336.983        
Sub_C37R         700887.709         250246.493        
Sub_C38          700886.748         250335.832        
Sub_C38R         700812.537         250276.324        
Sub_C39          700882.146         250381.854        
Sub_C39R         700715.886         250307.347        
Sub_C4           700745.717         250122.399        
Sub_C40          700872.941         250420.973        
Sub_C40R         700780.320         250343.144        
Sub_C41          700890.199         250442.258        
Sub_C43          700857.879         250475.590        
Sub_C5           700719.466         250142.684        
Sub_C51          700695.181         250187.411        
Sub_C51R         700805.377         250335.984        
Sub_C55R         700814.923         250398.031        
Sub_C6           700734.978         250189.219        
Sub_C61          700706.687         250110.900        
Sub_C7           700727.818         250205.924        
Sub_C8           700695.602         250217.856        
Sub_C9           700717.079         250273.937        
Sub_D10          701003.451         250326.439        
Sub_D11          700960.495         250307.347        
Sub_D111R        701121.579         250120.013        
Sub_D112R        701143.057         250109.274        
Sub_D114R        701171.694         250028.135        
Sub_D121R        701092.942         250112.853        
Sub_D131R        701026.122         250215.470        
Sub_D132R        701075.044         250262.005        
Sub_D134R        701141.864         250230.981        
Sub_D136R        701191.979         250275.130        
Sub_D137R        701238.514         250325.245        
Sub_D151R        701160.955         250254.846        
Sub_D2           700952.143         250201.151        
Sub_D21          700925.892         250223.822        
Sub_D22          700944.983         250272.744        
Sub_D23          700910.380         250269.164        
Sub_D24          700879.357         250301.381        
Sub_D3           700946.177         250153.423        
Sub_D30R         700989.132         250152.229        
Sub_D31R         701035.668         250139.104        
Sub_D32R         701065.498         250161.775        
Sub_D33          701061.918         250223.822        
Sub_D36          701106.067         250295.415        
Sub_D37          701091.749         250328.825        
Sub_D39          701066.691         250442.180        
Sub_D4           700977.200         250185.639        
Sub_D40          701094.135         250464.851        
Sub_D41          701163.342         250494.682        
Sub_D42          701183.626         250516.160        
Sub_D5           700999.871         250223.822        
Sub_D51          701023.735         250368.201        
Sub_D52          701008.224         250420.703        
Sub_D53          701005.837         250466.045        
Sub_D54          700976.007         250486.329        
Sub_D6           700971.234         250246.493        
Sub_D61          701029.702         250432.635        
Sub_D63          701064.305         250483.943        
Sub_D64          701135.898         250507.807        
Sub_D65          701128.738         250535.251        
Sub_D66          701150.216         250551.956        
Sub_D7           700974.814         250260.812        
Sub_D71          701096.522         250507.807        
Sub_D8           700980.780         250287.063        
Sub_D9           701029.702         250283.483        
Sub_E44          701204.638         249480.725        
Sub_E45          701246.400         249473.566        
Sub_E46          701259.525         249441.349        
Sub_E47          701234.468         249385.268        
Sub_E48          701266.685         249413.905        
Sub_E49          701304.868         249409.132        
Sub_E51          701254.753         249532.033        
Sub_E68          701291.475         249200.065        
Sub_E69          701333.810         249217.953        
Sub_E70          701360.642         249222.127        
Sub_E71          701345.139         249193.506        
Sub_E73          701368.694         249159.760        
Sub_E74          701379.427         249142.469        
Sub_E75          701356.768         249110.270        
Sub_E76          701390.159         249109.078        
Sub_E81          701311.748         249302.027        
Sub_E82          701346.332         249307.989        
Sub_E83          701363.623         249308.586        
Sub_E84          701377.338         249309.778        
Sub_E85          701428.617         249323.492        
Sub_E86          701457.238         249340.188        
Sub_E91          701338.580         249336.014        
Sub_E92          701367.201         249316.337        
Sub_E93          701365.412         249350.324        
Sub_E94          701386.282         249318.126        
Sub_F10          700851.632         249823.002        
Sub_F141         700935.157         249924.425        
Sub_F142         700894.587         249950.676        
Sub_F143         700926.804         249969.767        
Sub_F144         700973.340         249951.869        
Sub_F145         700927.997         249993.631        
Sub_F146         700962.601         250005.563        
Sub_F152         700994.817         250017.496        
Sub_F153         700981.692         250046.133        
Sub_F154         701018.682         250036.587        
Sub_F161         701005.556         249791.978        
Sub_F162         701077.149         249763.341        
Sub_F181         701159.481         249988.858        
Sub_F182         701171.413         249955.448        
Sub_F183         701238.233         249959.028        
Sub_F184         701213.176         249926.811        
Sub_F185         701243.006         249877.890        
Sub_F191         701182.152         249917.266        
Sub_F192         701164.254         249865.957        
Sub_F201         701065.217         249819.422        
Sub_F202         701114.139         249827.775        
Sub_F209R        701269.257         249783.626        
Sub_F21          701069.990         249784.819        
Sub_F210R        701299.087         249805.103        
Sub_F211R        701321.758         249858.798        
Sub_F212R        701271.643         249834.934        
Sub_F22          701073.570         249874.310        
Sub_F221R        701238.965         249790.242        
Sub_F222R        701245.392         249813.456        
Sub_F23          701044.932         249899.367        
Sub_F231R        701358.748         249839.707        
Sub_F24          701089.081         249889.822        
Sub_F241         700628.501         249844.480        
Sub_F242         700678.616         249865.957        
Sub_F243         700750.209         249901.754        
Sub_F244         700793.164         249907.720        
Sub_F248         700838.506         249987.665        
Sub_F249         700850.438         250005.563        
Sub_F25          701060.444         249942.323        
Sub_F250         700850.438         250038.973        
Sub_F251         700811.062         250073.577        
Sub_F253         700844.472         250078.350        
Sub_F254         700881.462         250096.248        
Sub_F255         700891.008         250059.258        
Sub_F26          701073.570         250005.563        
Sub_F27          701098.627         250015.109        
Sub_F31          701111.752         249932.777        
Sub_F32          701117.718         249861.185        
Sub_F41          701090.275         249963.801        
Sub_F42          701143.969         249928.005        
Sub_F6           700686.968         249799.137        
Sub_F61          700659.524         249770.500        
Sub_F62          700765.720         249716.806        
Sub_F63          700772.880         249673.850        
Sub_F64          700826.574         249714.419        
Sub_F65          700845.666         249754.988        
Sub_F7           700731.117         249821.808        
Sub_F8           700776.459         249817.036        
Sub_F81          700925.611         249814.649        
Sub_F82          700961.407         249838.513        
Sub_F83          700962.601         249892.208        
Sub_F84          700998.397         249864.764        
Sub_F85          701019.875         249882.662        
Sub_F86          700990.045         249919.652        
Sub_F87          701007.943         249985.279        
Sub_F88          700972.146         249975.733        
Sub_F89          701029.421         249997.211        
Sub_F90          701055.671         250030.621        
Sub_F91          701003.170         250085.509        
Sub_F92          701075.956         250074.770        
Sub_F93          701138.003         250033.007        
Sub_F94          701133.230         249981.699        
A0050RT          700217.716         249461.911        
A0055T           700604.984         249160.572        

[SYMBOLS]
;;Gage           X-Coord            Y-Coord           
;;-------------- ------------------ ------------------
rain_gauge       699270.088         249273.811        

[LABELS]
;;X-Coord          Y-Coord            Label           
698863.533         249551.045         "f02" 555 "Arial" 10 0 0
699812.415         248718.993         "f03" 11d "Arial" 10 0 0
698642.393         248776.563         "B60" 138a_Mess-Sch. "Arial" 10 0 0
698100.584         249318.338         "B5F" 58_Spezialsch._ "Arial" 10 0 0
697999.322         249315.264         "n257" RK59_MW "Arial" 10 0 0
698054.700         249400.133         "n256" RB_59 "Arial" 10 0 0
698000.137         249322.774         "n258" RB_59 "Arial" 10 0 0
697443.205         249655.768         "W769" RÜB+PW80_Industrie "Arial" 10 0 0
698993.179         248781.681         "M04" 23 "Arial" 10 0 0
698010.617         249386.135         "R01_ARA" ARA_Fehraltorf "Arial" 10 0 0
699277.604         249279.179         "R02_school" "" "Arial" 10 0 0
699551.304         247622.835         "R04_airfield" "" "Arial" 10 0 0


[BACKDROP]
FILE       "D:\PROJECTS\2015 Fehraltorf\3_data\_eval_uwoOpenData\_b2_swmm\Backdrop_Fehraltorf_Swissimage.bmp"
DIMENSIONS 696991.869 248056.134 701261.869 251719.134

[PROFILES]
;;Name           Links     
;;-------------- ----------
"                " Notentl.-Bach37 RÜ_48a 48a-58_SBW ÜS_58 HAL775
"                " 5494-597a HAL157 138a-138.2 L138.4-L48 161-162
"                " 162-163 163-164 164-165 165-166 166-167
"                " 167-48 48.3-L12 48a-58_SBW ÜS_58 HAL775
"                " 5494-597a ÜS_597 L78-L60 597a-595 Link_1
"squid_sectA     " RKB_Morgenthal_throttle 2c-2d 2d-2e 2e-2f 2f-10
"squid_sectA     " 10-10a 10a-10b 10b-10c 10c-11 11-11a
"squid_sectA     " 11a-11b 11b-11c 11c-11d 11d-GU25 GU25-11f
"squid_sectA     " 11f-11g 11g-11h L462-L463 12-12a L464-L465
"squid_sectA     " L465-L469 L471-L466 L466-L467 L467-L468 L468-L448
"squid_sectA     " L448-L459 L459-L250 L250-L458 L458-L246 L458-L246(40216)
"squid_sectA     " L246-L247 L128-L22a L120-L126 GU22-157a 157a-L87
"squid_sectA     " 157.3-125.1 125-126 126-128a
"RUBmorgental-RUBusterstr" RKB_Morgenthal_throttle 2c-2d 2d-2e 2e-2f 2f-10
"RUBmorgental-RUBusterstr" 10-10a 10a-10b 10b-10c 10c-11 11-11a
"RUBmorgental-RUBusterstr" 11a-11b 11b-11c 11c-11d 11d-GU25 GU25-11f
"RUBmorgental-RUBusterstr" 11f-11g 11g-11h L462-L463 12-12a L464-L465
"RUBmorgental-RUBusterstr" L465-L469 L471-L466 L466-L467 L467-L468 L468-L448
"RUBmorgental-RUBusterstr" L448-L459 L459-L250 L250-L458 L458-L246 L458-L246(40216)
"RUBmorgental-RUBusterstr" L246-L247 L128-L22a L120-L126 GU22-157a 157a-L87
"RUBmorgental-RUBusterstr" 157.3-125.1 125-126 126-128a 128.1-128a.1
"RUBusterstr_ARAinflow" HAL157 138a-138.2 L138.4-L48 161-162 162-163
"RUBusterstr_ARAinflow" 163-164 164-165 165-166 166-167 167-48
"RUBusterstr_ARAinflow" 48.3-L12 48a-58_SBW ÜS_58 HAL775 5494-597a
"RUBusterstr_ARAinflow" ÜS_597 L78-L60 597a-595 Link_1
