[TITLE]
;;Project Title/Notes

[OPTIONS]
;;Option             Value
FLOW_UNITS           LPS
INFILTRATION         HORTON
FLOW_ROUTING         DYNWAVE
LINK_OFFSETS         DEPTH
MIN_SLOPE            0
ALLOW_PONDING        YES
SKIP_STEADY_STATE    YES

START_DATE           12/31/2016
START_TIME           00:00:00
REPORT_START_DATE    01/01/2017
REPORT_START_TIME    00:00:00
END_DATE             12/31/2017
END_TIME             23:55:00
SWEEP_START          01/01
SWEEP_END            12/31
DRY_DAYS             0
REPORT_STEP          00:05:00
WET_STEP             00:05:00
DRY_STEP             00:15:00
ROUTING_STEP         0:00:30 

INERTIAL_DAMPING     PARTIAL
NORMAL_FLOW_LIMITED  BOTH
FORCE_MAIN_EQUATION  D-W
VARIABLE_STEP        0.75
LENGTHENING_STEP     0
MIN_SURFAREA         1.14
MAX_TRIALS           8
HEAD_TOLERANCE       0.0015
SYS_FLOW_TOL         5
LAT_FLOW_TOL         5
MINIMUM_STEP         0.5
THREADS              8

[FILES]
;;Interfacing Files
SAVE OUTFLOWS "f02_lps_Qpoll3_sim_2017.txt"

[EVAPORATION]
;;Data Source    Parameters
;;-------------- ----------------
MONTHLY          0.1    0.6    1.3    3.0    3.7    4.9    4.9    4.3    3.1    0.9    0.4    0.1   
DRY_ONLY         NO

[RAINGAGES]
;;Name           Format    Interval SCF      Source    
;;-------------- --------- ------ ------ ----------
rain_gauge       VOLUME    0:01     1.0      FILE       "r02_mm_utc0_1min_corr.dat" r02        MM   

[SUBCATCHMENTS]
;;Name           Rain Gage        Outlet           Area     %Imperv  Width    %Slope   CurbLen  SnowPack        
;;-------------- ---------------- ---------------- -------- -------- -------- -------- -------- ----------------
Sub12            rain_gauge       56               2.160    29       146.9693846 1        0                        
sub1             rain_gauge       114              0.2800   29       52.91502622 1        0                        
Sub2             rain_gauge       109              2.36     29       153.622915 1        0                        
Sub3             rain_gauge       65               0.2800   29       52.91502622 1        0                        
Sub4             rain_gauge       58               0.70     29       83.66600265 1        0                        
Sub5             rain_gauge       82               0.2700   29       51.96152423 1        0                        
Sub6             rain_gauge       86               2.33     29       152.6433752 1        0                        
Sub7             rain_gauge       68               1.13     29       106.3014581 1        0                        
Sub8             rain_gauge       57               0.3400   29       58.30951895 1        0                        
Sub9             rain_gauge       53               0.2800   29       52.91502622 1        0                        
Sub10            rain_gauge       74               1.120    29       105.8300524 1        0                        
Sub11            rain_gauge       30               0.2300   29       47.95831523 1        0                        
Sub13            rain_gauge       96               0.28     29       52.91502622 1        0                        
D0165T           rain_gauge       540a_SW          0.2851   0        53.3947563 0.5      0                        
D0170T           rain_gauge       550_SW           0.1373   0        37.05401463 0.5      0                        
D0175RT          rain_gauge       520              0.1730   29       41.59326869 1        0                        
D0180T           rain_gauge       536_SW           0.1773   0        42.10700654 0.5      0                        
D0185RT          rain_gauge       519              0.3164   29       56.24944444 1        0                        
D0190T           rain_gauge       538a_SW          0.5805   0        76.1905506 0.5      0                        
D0195T           rain_gauge       51_SW            0.5460   0        73.89181281 0.5      0                        
D0200T           rain_gauge       521_SW           1.349    0        116.1464593 0.5      0                        
D0205T           rain_gauge       529_SW           0.3363   0        57.99137867 0.5      0                        
D0210T           rain_gauge       529_SW           0.1819   0        42.64973622 0.5      0                        
D0215T           rain_gauge       528_SW           0.1823   0        42.69660408 0.5      0                        
D0225T           rain_gauge       521_SW           0.0775   0        27.83882181 0.5      0                        
D0230T           rain_gauge       500_SW           0.4592   0        67.76429738 0.5      0                        
D0235T           rain_gauge       501_SW           0.6665   0        81.63945125 0.5      0                        
D0240T           rain_gauge       500_SW           0.1241   0        35.22782991 0.5      0                        
D0255T           rain_gauge       570              0.6595   0        81.20960534 0.5      0                        
D0270T           rain_gauge       530              0.2778   0        52.70673581 0.5      0                        
D0275T           rain_gauge       530              0.2365   0        48.63126566 0.5      0                        
D0280T           rain_gauge       540_SW           0.2295   0        47.90615827 0.5      0                        
D0285T           rain_gauge       560_SW           0.2832   0        53.21653878 0.5      0                        
D0290T           rain_gauge       549              0.1701   29       41.24318125 1        0                        
D0300T           rain_gauge       548              0.3157   29       56.18718715 1        0                        
D0305T           rain_gauge       500_SW           0.1888   0        43.45112196 0.5      0                        
D0310T           rain_gauge       51_SW            0.2191   0        46.80811895 0.5      0                        
D0315T           rain_gauge       507_SW           0.1162   0        34.0881211 0.5      0                        
D0320T           rain_gauge       503_SW           0.0842   0        29.01723626 0.5      0                        
D0325RT          rain_gauge       511_SW           0.5165   29       71.86793444 1        0                        
D0330RT          rain_gauge       512_SW           0.4740   29       68.84765791 1        0                        
D0335RT          rain_gauge       514a             0.4053   29       63.66317617 1        0                        
D0340T           rain_gauge       514_SW           0.1482   0        38.49675311 0.5      0                        
D0345RT          rain_gauge       514a             0.3730   29       61.07372594 1        0                        
D0350RT          rain_gauge       515              1.026    29       101.2916581 1        0                        
D0355RT          rain_gauge       517a             0.8620   29       92.84395511 1        0                        
D0360RT          rain_gauge       517              0.1412   29       37.57658846 1        0                        
D0365RT          rain_gauge       519              0.1221   29       34.94281042 1        0                        
D0370RT          rain_gauge       519              0.1657   29       40.70626487 1        0                        
D0375T           rain_gauge       519              0.6310   29       79.43550843 1        0                        
D0380RT          rain_gauge       520              0.3123   29       55.88380803 1        0                        
D0385T           rain_gauge       520              0.1590   29       39.87480407 1        0                        
D0390RT          rain_gauge       520              0.1049   29       32.38826948 1        0                        
D0395RT          rain_gauge       548              0.0608   29       24.65765601 1        0                        
D0400RT          rain_gauge       548              0.2455   29       49.54795657 1        0                        
D0410RT          rain_gauge       546              0.3867   29       62.18520724 1        0                        
D0420T           rain_gauge       520              0.1132   29       33.64520768 1        0                        
D0445T           rain_gauge       539_SW           0.3984   0        63.11893535 0.5      0                        
D0615R           rain_gauge       514_RW           0.5460   0        73.89181281 0.5      0                        
D0625R           rain_gauge       529b_RW          0.3363   0        57.99137867 0.5      0                        
D0660R           rain_gauge       501_RW           0.6665   0        81.63945125 0.5      0                        
D0680R           rain_gauge       513_RW           0.1482   0        38.49675311 0.5      0                        
rdii1            rain_gauge       547              8        25       1        0.5      0                        
rdii2            rain_gauge       16               12       25       1        0.5      0                        

[SUBAREAS]
;;Subcatchment   N-Imperv   N-Perv     S-Imperv   S-Perv     PctZero    RouteTo    PctRouted 
;;-------------- ---------- ---------- ---------- ---------- ---------- ---------- ----------
Sub12            0.018      0.25       1          6.08       25         OUTLET    
sub1             0.018      0.25       1          6.08       25         OUTLET    
Sub2             0.018      0.25       1          6.08       25         OUTLET    
Sub3             0.018      0.25       1          6.08       25         OUTLET    
Sub4             0.018      0.25       1          6.08       30         OUTLET    
Sub5             0.018      0.25       1          6.08       25         OUTLET    
Sub6             0.018      0.25       1          6.08       25         OUTLET    
Sub7             0.018      0.25       1          6.08       25         OUTLET    
Sub8             0.018      0.25       1          6.08       25         OUTLET    
Sub9             0.018      0.25       1          6.08       25         OUTLET    
Sub10            0.018      0.25       1          6.08       25         OUTLET    
Sub11            0.018      0.25       1          6.08       25         OUTLET    
Sub13            0.018      0.25       1          6.08       25         OUTLET    
D0165T           0.016      0.25       1.778      6.08       25         OUTLET    
D0170T           0.016      0.25       1.778      6.08       25         OUTLET    
D0175RT          0.018      0.25       1          6.08       25         OUTLET    
D0180T           0.016      0.25       1.778      6.08       25         OUTLET    
D0185RT          0.018      0.25       1          6.08       25         OUTLET    
D0190T           0.016      0.25       1.778      6.08       25         OUTLET    
D0195T           0.016      0.25       1.778      6.08       25         OUTLET    
D0200T           0.016      0.25       1.778      6.08       25         OUTLET    
D0205T           0.016      0.25       1.778      6.08       25         OUTLET    
D0210T           0.016      0.25       1.778      6.08       25         OUTLET    
D0215T           0.016      0.25       1.778      6.08       25         OUTLET    
D0225T           0.016      0.25       1.778      6.08       25         OUTLET    
D0230T           0.016      0.25       1.778      6.08       25         OUTLET    
D0235T           0.016      0.25       1.778      6.08       25         OUTLET    
D0240T           0.016      0.25       1.778      6.08       25         OUTLET    
D0255T           0.016      0.25       1.778      6.08       25         OUTLET    
D0270T           0.016      0.25       1.778      6.08       25         OUTLET    
D0275T           0.016      0.25       1.778      6.08       25         OUTLET    
D0280T           0.016      0.25       1.778      6.08       25         OUTLET    
D0285T           0.016      0.25       1.778      6.08       25         OUTLET    
D0290T           0.018      0.25       1          6.08       25         OUTLET    
D0300T           0.018      0.25       1          6.08       25         OUTLET    
D0305T           0.016      0.25       1.778      6.08       25         OUTLET    
D0310T           0.016      0.25       1.778      6.08       25         OUTLET    
D0315T           0.016      0.25       1.778      6.08       25         OUTLET    
D0320T           0.016      0.25       1.778      6.08       25         OUTLET    
D0325RT          0.018      0.25       1          6.08       25         OUTLET    
D0330RT          0.018      0.25       1          6.08       25         OUTLET    
D0335RT          0.018      0.25       1          6.08       25         OUTLET    
D0340T           0.016      0.25       1.778      6.08       25         OUTLET    
D0345RT          0.018      0.25       1          6.08       25         OUTLET    
D0350RT          0.018      0.25       1          6.08       25         OUTLET    
D0355RT          0.018      0.25       1          6.08       25         OUTLET    
D0360RT          0.018      0.25       1          6.08       25         OUTLET    
D0365RT          0.018      0.25       1          6.08       25         OUTLET    
D0370RT          0.018      0.25       1          6.08       25         OUTLET    
D0375T           0.018      0.25       1          6.08       25         OUTLET    
D0380RT          0.018      0.25       1          6.08       25         OUTLET    
D0385T           0.018      0.25       1          6.08       25         OUTLET    
D0390RT          0.018      0.25       1          6.08       25         OUTLET    
D0395RT          0.018      0.25       1          6.08       25         OUTLET    
D0400RT          0.018      0.25       1          6.08       25         OUTLET    
D0410RT          0.018      0.25       1          6.08       25         OUTLET    
D0420T           0.018      0.25       1          6.08       25         OUTLET    
D0445T           0.016      0.25       1.778      6.08       25         OUTLET    
D0615R           0.016      0.25       1.778      6.08       25         OUTLET    
D0625R           0.016      0.25       1.778      6.08       25         OUTLET    
D0660R           0.016      0.25       1.778      6.08       25         OUTLET    
D0680R           0.016      0.25       1.778      6.08       25         OUTLET    
rdii1            0.01       0.1        1          5          25         OUTLET    
rdii2            0.01       0.1        1          5          25         OUTLET    

[INFILTRATION]
;;Subcatchment   MaxRate    MinRate    Decay      DryTime    MaxInfil  
;;-------------- ---------- ---------- ---------- ---------- ----------
Sub12            75         1.5        5          7          0         
sub1             75         1.5        5          7          0         
Sub2             75         1.5        5          7          0         
Sub3             75         4.5        5          7          0         
Sub4             75         1.5        5          7          0         
Sub5             75         1.5        5          7          0         
Sub6             75         1.5        5          7          0         
Sub7             75         1.5        5          7          0         
Sub8             75         1.5        5          7          0         
Sub9             75         1.5        5          7          0         
Sub10            75         1.5        5          7          0         
Sub11            75         1.5        5          7          0         
Sub13            75         1.5        5          7          0         
D0165T           75         1.5        5          7          0         
D0170T           75         1.5        5          7          0         
D0175RT          75         1.5        5          7          0         
D0180T           75         1.5        5          7          0         
D0185RT          75         1.5        5          7          0         
D0190T           75         1.5        5          7          0         
D0195T           75         1.5        5          7          0         
D0200T           75         1.5        5          7          0         
D0205T           75         1.5        5          7          0         
D0210T           75         1.5        5          7          0         
D0215T           75         1.5        5          7          0         
D0225T           75         1.5        5          7          0         
D0230T           75         1.5        5          7          0         
D0235T           75         1.5        5          7          0         
D0240T           75         1.5        5          7          0         
D0255T           75         1.5        5          7          0         
D0270T           75         1.5        5          7          0         
D0275T           75         1.5        5          7          0         
D0280T           75         1.5        5          7          0         
D0285T           75         1.5        5          7          0         
D0290T           75         1.5        5          7          0         
D0300T           75         1.5        5          7          0         
D0305T           75         1.5        5          7          0         
D0310T           75         1.5        5          7          0         
D0315T           75         1.5        5          7          0         
D0320T           75         1.5        5          7          0         
D0325RT          75         1.5        5          7          0         
D0330RT          75         1.5        5          7          0         
D0335RT          75         1.5        5          7          0         
D0340T           75         1.5        5          7          0         
D0345RT          75         1.5        5          7          0         
D0350RT          75         1.5        5          7          0         
D0355RT          75         1.5        5          7          0         
D0360RT          75         1.5        5          7          0         
D0365RT          75         1.5        5          7          0         
D0370RT          75         1.5        5          7          0         
D0375T           75         1.5        5          7          0         
D0380RT          75         1.5        5          7          0         
D0385T           75         1.5        5          7          0         
D0390RT          75         1.5        5          7          0         
D0395RT          75         1.5        5          7          0         
D0400RT          75         1.5        5          7          0         
D0410RT          75         1.5        5          7          0         
D0420T           75         1.5        5          7          0         
D0445T           75         1.5        5          7          0         
D0615R           75         1.5        5          7          0         
D0625R           75         1.5        5          7          0         
D0660R           75         1.5        5          7          0         
D0680R           75         1.5        5          7          0         
rdii1            3.0        0.5        4          7          0         
rdii2            3.0        0.5        4          7          0         

[JUNCTIONS]
;;Name           Elevation  MaxDepth   InitDepth  SurDepth   Aponded   
;;-------------- ---------- ---------- ---------- ---------- ----------
541f             574.7      2.81       0.01       0          0         
541g             574.64     1.65       0.01       0          0         
541h             572.67     2.06       0.01       0          0         
10               574        0          0          0          0         
101              599.96     0          0          0          0         
103              601.85     0          0          0          0         
104              603.80     0          0          0          0         
106              605.62     0          0          0          0         
107              606.16     0          0          0          0         
108              608.00     0          0          0          0         
109              609.02     0          0          0          0         
114              606.97     0          0          0          0         
120              598.39     0          0          0          0         
123              598.76     0          0          0          0         
126              599.20     0          0          0          0         
127              599.55     0          0          0          0         
129              600.15     0          0          0          0         
132              601.20     0          0          0          0         
133              603.63     0          0          0          0         
135              604.04     0          0          0          0         
14               585.19     0          0          0          0         
19               591.31     0          0          0          0         
15               585.98     0          0          0          0         
16               588.09     0          0          0          0         
17               590.18     0          0          0          0         
18               590.93     0          0          0          0         
22               592.49     0          0          0          0         
23               593.44     0          0          0          0         
24               594.00     0          0          0          0         
25               595.15     0          0          0          0         
26               593.18     0          0          0          0         
27               595.15     0          0          0          0         
28               596.01     0          0          0          0         
29               596.46     0          0          0          0         
30               600.49     0          0          0          0         
38               597.12     0          0          0          0         
39               598.04     0          0          0          0         
40               599.01     0          0          0          0         
41               600.92     0          0          0          0         
42               604.29     0          0          0          0         
43               606.22     0          0          0          0         
44               610.27     0          0          0          0         
45               615.25     0          0          0          0         
46               617.03     0          0          0          0         
47               617.79     0          0          0          0         
48               618.53     0          0          0          0         
49               619.56     0          0          0          0         
50               626.43     0          0          0          0         
51               631.29     0          0          0          0         
52               633.24     0          0          0          0         
53               635.79     0          0          0          0         
54               636.30     0          0          0          0         
55               636.68     0          0          0          0         
56               641.43     0          0          0          0         
57               638.57     0          0          0          0         
58               622.96     0          0          0          0         
59               622.01     0          0          0          0         
60               621.47     0          0          0          0         
61               620.83     0          0          0          0         
62               620.28     0          0          0          0         
63               623.25     0          0          0          0         
64               624.39     0          0          0          0         
65               625.64     0          0          0          0         
66               628.09     0          0          0          0         
67               629.45     0          0          0          0         
68               631.32     0          0          0          0         
69               619.13     0          0          0          0         
7                582.06     0          0          0          0         
70               616.53     0          0          0          0         
71               613.43     0          0          0          0         
73               609.43     0          0          0          0         
74               605.66     0          0          0          0         
75               602.49     0          0          0          0         
76               601.02     0          0          0          0         
77               613.19     0          0          0          0         
78               614.08     0          0          0          0         
79               614.30     0          0          0          0         
8                583        0          0          0          0         
80               614.61     0          0          0          0         
81               615.32     0          0          0          0         
82               616.56     0          0          0          0         
83               619.75     0          0          0          0         
84               620.58     0          0          0          0         
85               623.20     0          0          0          0         
86               627.12     0          0          0          0         
87               608.8      0          0          0          0         
88               607.00     0          0          0          0         
89               603.30     0          0          0          0         
9                579        0          0          0          0         
90               602.53     0          0          0          0         
91               600.52     0          0          0          0         
92               597.38     0          0          0          0         
93               595.84     0          0          0          0         
94               593.52     0          0          0          0         
96               597.46     0          0          0          0         
97               597.75     0          0          0          0         
99               598.75     0          0          0          0         
500_SW           549.63     2.78       0.01       0          0         
501_RW           561.28     1.7        0.01       0          0         
501_SW           560.76     2.22       0.01       0          0         
502_SW           556.74     3.43       0.01       0          0         
503_SW           555.63     2.41       0.01       0          0         
504_SW           554.65     2.5        0.01       0          0         
507_SW           554        2          0.01       0          0         
51__RW           546.36     1.87       0.01       0          0         
51_SW            545.91     2.32       0.01       0          0         
511_RW           560.85     1.48       0.01       0          0         
511_SW           560.31     2.01       0.01       0          0         
512_RW           554.69     2.33       0.01       0          0         
512_SW           554.19     2.83       0.01       0          0         
513_RW           552.57     3.4        0.01       0          0         
513_SW           552.01     3.96       0.01       0          0         
513a_SW          552.56     3.58       0.01       0          0         
514_RW           550.68     3.25       0.01       0          0         
514_SW           550.68     3.25       0.01       0          0         
514a             551.7      4.12       0.01       0          0         
515              551.25     4.31       0.01       0          0         
516              549.92     4.91       0.01       0          0         
517              547.46     3.11       0.01       0          0         
517a             547.81     3.29       0.01       0          0         
518              545.47     5.49       0.01       0          0         
519              541.85     3.49       0.01       0          0         
520              539.77     4.02       0.01       0          0         
521_SW           541.18     3.1        0.01       0          0         
521a_SW          543.43     2.35       0.01       0          0         
528_SW           539.59     3.19       0.01       0          0         
529_SW           539.07     3.11       0.01       0          0         
529a_SW          539.19     3.01       0.01       0          0         
529b_RW          540.3      3.41       0.01       0          0         
529b_SW          539.92     3.79       0.01       0          0         
530              538.92     2.45       0.01       0          0         
536_SW           541.53     3.73       0.01       0          0         
538_SW           540.59     4.45       0.01       0          0         
538a_RW          541.2      3.85       0.01       0          0         
538a_SW          541.2      3.86       0.01       0          0         
539_SW           539.62     3.97       0.01       0          0         
540_SW           538.61     2.85       0.01       0          0         
540a_SW          538.71     3.07       0.01       0          0         
541              543.14     1.98       0.01       0          0         
541a             548.38     2.52       0.01       0          0         
541b             546.53     1.78       0.01       0          0         
541c             545.43     1.75       0.01       0          0         
541d             544.28     2.25       0.01       0          0         
541i             571.72     2.3        0.01       0          0         
541k             569.11     2.18       0.01       0          0         
541L             564.95     2.03       0.01       0          0         
541m             561.36     2.32       0.01       0          0         
541n             560.05     2.25       0.01       0          0         
541o             558.84     3          0.01       0          0         
541p             555.6      1.96       0.01       0          0         
541q             552.19     1.97       0.01       0          0         
542              542.13     2.41       0.01       0          0         
543              540.63     2.31       0.01       0          0         
544              539.3      2.26       0.01       0          0         
545              538.68     1.72       0.01       0          0         
546              539.26     3.74       0.01       0          0         
546a             539.26     3.35       0.01       0          0         
547              539.02     3.19       0.01       0          0         
548              538.67     4.14       0.01       0          0         
549              538.24     2.28       0.01       0          0         
54a              537.67     2.5        0.01       0          0         
550_SW           538.45     3.73       0.01       0          0         
550a_SW          538.48     3.55       0.01       0          0         
560_SW           538.34     2.27       0.01       0          0         
570              538.12     2.57       0.01       0          0         
570a             537.9      2.57       0.01       0          0         
590b             541.6      3.44       0.01       0          0         
590c             540.33     3.17       0.01       0          0         

[OUTFALLS]
;;Name           Elevation  Type       Stage Data       Gated    Route To        
;;-------------- ---------- ---------- ---------------- -------- ----------------
555              536.08     FREE                        NO                       
Bacheinl_RÜB_Rum 570        FREE                        NO                       

[STORAGE]
;;Name           Elev.    MaxDepth   InitDepth  Shape      Curve Name/Params            N/A      Fevap    Psi      Ksat     IMD     
;;-------------- -------- ---------- ----------- ---------- ---------------------------- -------- --------          -------- --------
RÜBRumlikon      582.42   3          0          FUNCTIONAL 0         0         25       0        0       

[CONDUITS]
;;Name           From Node        To Node          Length     Roughness  InOffset   OutOffset  InitFlow   MaxFlow   
;;-------------- ---------------- ---------------- ---------- ---------- ---------- ---------- ---------- ----------
514f-541g        541f             541g             55.51      0.015      0          0          0          0         
541g-541h        541g             541h             74.25      0.015      0          0          0          0         
541h-541i        541h             541i             66.16      0.015      0          0          0          0         
6                9                10               50         0.015      0          0          0          0         
7                10               Bacheinl_RÜB_Rum 50         0.015      0          0          0          0         
8                8                9                50         0.015      0          0          0          0         
13               15               14               35         0.015      0          0          0          0         
14               16               15               59         0.015      0          0          0          0         
15               17               16               62         0.015      0          0          0          0         
16               18               17               28         0.015      0          0          0          0         
17               19               18               9          0.015      0          0          0          0         
18               22               19               22         0.015      0          0          0          0         
19               94               22               20         0.015      0          0          0          0         
21               24               23               39         0.015      0          0          0          0         
22               25               24               71         0.015      0          0          0          0         
23               93               94               40         0.015      0          0          0          0         
36               38               29               46         0.015      0          0          0          0         
37               39               38               55         0.015      0          0          0          0         
38               40               39               53         0.015      0          0          0          0         
39               41               40               53         0.015      0          0          0          0         
40               42               41               41         0.015      0          0          0          0         
41               43               42               20         0.015      0          0          0          0         
42               44               43               42         0.015      0          0          0          0         
43               45               44               31         0.015      0          0          0          0         
44               46               45               51         0.015      0          0          0          0         
45               47               46               51         0.015      0          0          0          0         
46               48               47               50         0.015      0          0          0          0         
47               49               48               53         0.015      0          0          0          0         
48               50               49               59         0.015      0          0          0          0         
49               51               50               27         0.015      0          0          0          0         
50               52               51               46         0.015      0          0          0          0         
51               53               52               30         0.015      0          0          0          0         
52               54               51               26         0.015      0          0          0          0         
53               55               54               16         0.015      0          0          0          0         
54               56               55               32         0.015      0          0          0          0         
55               57               54               45         0.015      0          0          0          0         
56               58               59               25         0.015      0          0          0          0         
57               59               60               47         0.015      0          0          0          0         
58               60               61               47         0.015      0          0          0          0         
59               61               62               47         0.015      0          0          0          0         
60               63               62               21         0.015      0          0          0          0         
61               64               63               9          0.015      0          0          0          0         
62               66               64               28         0.015      0          0          0          0         
63               67               66               13         0.015      0          0          0          0         
64               68               67               64         0.015      0          0          0          0         
65               65               64               47         0.015      0          0          0          0         
66               62               69               48         0.015      0          0          0          0         
67               69               70               49         0.015      0          0          0          0         
68               70               71               46         0.015      0          0          0          0         
69               71               73               160        0.015      0          0          0          0         
70               73               87               57         0.015      0          0          0          0         
71               87               88               13         0.015      0          0          0          0         
72               88               89               24         0.015      0          0          0          0         
73               89               90               6          0.015      0          0          0          0         
74               90               91               73         0.015      0          0          0          0         
75               91               92               71         0.015      0          0          0          0         
76               92               93               49         0.015      0          0          0          0         
77               76               38               47         0.015      0          0          0          0         
78               75               76               48         0.015      0          0          0          0         
79               74               75               61         0.015      0          0          0          0         
80               77               73               14         0.015      0          0          0          0         
81               78               77               3          0.015      0          0          0          0         
82               79               78               6          0.015      0          0          0          0         
83               80               79               12         0.015      0          0          0          0         
84               81               80               27         0.015      0          0          0          0         
85               82               81               12         0.015      0          0          0          0         
86               83               78               42         0.015      0          0          0          0         
87               84               83               16         0.015      0          0          0          0         
88               85               84               27         0.015      0          0          0          0         
89               86               85               38         0.015      0          0          0          0         
90               30               29               39         0.015      0          0          0          0         
91               29               28               42         0.015      0          0          0          0         
92               28               27               16         0.015      0          0          0          0         
93               27               26               43         0.015      0          0          0          0         
94               26               18               43         0.015      0          0          0          0         
95               96               93               65         0.015      0          0          0          0         
96               97               96               8          0.015      0          0          0          0         
97               99               97               15         0.015      0          0          0          0         
98               120              97               400        0.015      0          0          0          0         
99               123              120              400        0.015      0          0          0          0         
100              126              123              400        0.015      0          0          0          0         
101              127              126              400        0.015      0          0          0          0         
102              129              127              400        0.015      0          0          0          0         
103              132              129              400        0.015      0          0          0          0         
104              133              132              400        0.015      0          0          0          0         
105              135              133              400        0.015      0          0          0          0         
119              101              99               31         0.015      0          0          0          0         
120              103              101              43         0.015      0          0          0          0         
121              104              103              49         0.015      0          0          0          0         
122              106              104              19         0.015      0          0          0          0         
123              107              106              31         0.015      0          0          0          0         
124              108              107              17         0.015      0          0          0          0         
125              109              108              21         0.015      0          0          0          0         
137              114              106              19         0.015      0          0          0          0         
139              23               22               43         0.015      0          0          0          0         
27               7                541f             250        0.015      0          0          0          0         
138              14               RÜBRumlikon      6          0.015      0          0          0          0         
140              RÜBRumlikon      7                10         0.015      0          0          0          0         
_570-570a        570              570a             47.82      0.015      0          0          0          0         
501_SW-403       501_SW           502_SW           46.22      0.015      0          0.02       0          0         
520-L337         520              546a             50.19      0.015      0          0          0          0         
528_SW-529a_SW   528_SW           529a_SW          57.08      0.015      0          0          0          0         
529_SW-L328      529_SW           530              48.59      0.015      0          0          0          0         
529a_SW-529_SW   529a_SW          529_SW           7.63       0.015      0          0          0          0         
529b_SW-529_SW   529b_SW          529_SW           37.23      0.015      0          0          0          0         
536_SW-538_SW    536_SW           538_SW           22.05      0.015      0          0.01       0          0         
538_SW-L349      538_SW           539_SW           56.82      0.015      0          0          0          0         
538a_SW-538_SW   538a_SW          538_SW           14.323     0.015      0          0.02       0          0         
541-542          541              542              49.77      0.015      0          0          0          0         
541a-541b        541a             541b             60.05      0.015      0          0          0          0         
541b-541c        541b             541c             59.86      0.015      0          0          0          0         
541c-541d        541c             541d             59.88      0.015      0          0          0          0         
541d-541         541d             541              61.76      0.015      0          0          0          0         
541i-541k        541i             541k             64.48      0.015      0          0          0          0         
541k-541L        541k             541L             70.06      0.015      0          0          0          0         
541L-541m        541L             541m             70.03      0.015      0          0          0          0         
541m-541n        541m             541n             27.41      0.015      0          0          0          0         
541n-541o        541n             541o             26.13      0.015      0          0          0          0         
541o-541p        541o             541p             70.04      0.015      0          0          0          0         
541p-541q        541p             541q             70.09      0.015      0          0          0          0         
541q-541a        541q             541a             59.93      0.015      0          0          0          0         
542-543          542              543              74         0.015      0          0          0          0         
543-L282         543              544              74.06      0.015      0          0          0          0         
54-555           54a              555              70.39      0.015      0          0          0          0         
550_SW-560_SW    550_SW           560_SW           37.75      0.015      0          0          0          0         
550a_SW-550_SW   550a_SW          550_SW           21.69      0.015      0          0          0          0         
560_SW-570       560_SW           570              62.34      0.015      0          0          0          0         
570a-54          570a             54a              43.98      0.015      0          0.17       0          0         
590b-590c        590b             590c             34.3       0.015      0          0.03       0          0         
590c-520         590c             520              27.12      0.015      0          0          0          0         
L280-L287        549              54a              60.5       0.015      0          0.08       0          0         
L281-L371        545              54a              66.93      0.015      0          0.07       0          0         
L282-L281        544              545              56.17      0.015      0          0          0          0         
L284-L280        548              549              66.62      0.015      0          0          0          0         
L285-L284        547              548              23.56      0.015      0          0          0          0         
L286-L285        546              547              28.68      0.015      0          0          0          0         
L319-L373        517              518              49.13      0.015      0          0          0          0         
L321-L322        516              517a             67.19      0.015      0          0          0          0         
L322-L319        517a             517              6.84       0.015      0          0          0          0         
L322-L325        518              519              55.89      0.015      0          0          0          0         
L323-L321        515              516              59.15      0.015      0          0          0          0         
L324-L323        514a             515              47.68      0.015      0          0          0          0         
L325-520         519              520              57.3       0.015      0          0          0          0         
L328-L334        530              540_SW           66.99      0.015      0          0          0          0         
L334-550a_SW     540_SW           550a_SW          19.95      0.015      0          0          0          0         
L336-L334        540a_SW          540_SW           9.87       0.015      0          0          0          0         
L337-L286        546a             546              6.54       0.015      0          0          0          0         
L349-L336        539_SW           540a_SW          44.9       0.015      0          0          0          0         
L354-L355        513_RW           514_RW           29.18      0.015      0          0          0          0         
L355-L357        514_RW           51__RW           52.65      0.015      0          0          0          0         
L361-L362        51_SW            521_SW           52.8       0.015      0          0          0          0         
L362-L343        521_SW           528_SW           49.94      0.015      0          0          0          0         
L364-L365        513_SW           514_SW           30.17      0.015      0          0          0          0         
L365-L356        514_SW           51_SW            52.74      0.015      0          0          0          0         
L374-L324        513a_SW          514a             54.21      0.015      0          0.04       0          0         
L381-E801        521a_SW          521_SW           5.104      0.015      0          0          0          0         
L383-L385        511_SW           512_SW           60.34      0.015      0          6.12       0          0         
L384-L386        511_RW           512_RW           60.26      0.015      0          6.16       0          0         
L385-L374        512_SW           513a_SW          34.56      0.015      0          0.09       0          0         
L386-L326        512_RW           513a_SW          34.54      0.015      0          0.69       0          0         
L391-L359        500_SW           51_SW            63.48      0.015      0          0          0          0         
L397-L387        507_SW           500_SW           38.209     0.015      0          0.01       0          0         
L399-L397        504_SW           507_SW           6.374      0.015      0          0          0          0         
L403-L405        502_SW           503_SW           25.5       0.015      0          0          0          0         
L405-L399        503_SW           504_SW           19.06      0.015      0          0          0          0         

[WEIRS]
;;Name           From Node        To Node          Type         CrestHt    Qcoeff     Gated    EndCon   EndCoeff   Surcharge  RoadWidth  RoadSurf  
;;-------------- ---------------- ---------------- ------------ ---------- ---------- -------- -------- ---------- ---------- ---------- ----------
141              RÜBRumlikon      8                SIDEFLOW     2          1.5        NO       0        0          YES       

[XSECTIONS]
;;Link           Shape        Geom1            Geom2      Geom3      Geom4      Barrels    Culvert   
;;-------------- ------------ ---------------- ---------- ---------- ---------- ---------- ----------
514f-541g        CIRCULAR     0.3              0          0          0          1                    
541g-541h        CIRCULAR     0.3              0          0          0          1                    
541h-541i        CIRCULAR     0.3              0          0          0          1                    
6                CIRCULAR     1                0          0          0          1                    
7                CIRCULAR     1                0          0          0          1                    
8                CIRCULAR     1                0          0          0          1                    
13               CIRCULAR     0.8              0          0          0          1                    
14               CIRCULAR     0.7              0          0          0          1                    
15               CIRCULAR     0.7              0          0          0          1                    
16               CIRCULAR     0.7              0          0          0          1                    
17               CIRCULAR     0.7              0          0          0          1                    
18               CIRCULAR     0.7              0          0          0          1                    
19               CIRCULAR     0.7              0          0          0          1                    
21               CIRCULAR     0.2              0          0          0          1                    
22               CIRCULAR     0.2              0          0          0          1                    
23               CIRCULAR     0.6              0          0          0          1                    
36               CIRCULAR     0.6              0          0          0          1                    
37               CIRCULAR     0.4              0          0          0          1                    
38               CIRCULAR     0.4              0          0          0          1                    
39               CIRCULAR     0.35             0          0          0          1                    
40               CIRCULAR     0.35             0          0          0          1                    
41               CIRCULAR     0.35             0          0          0          1                    
42               CIRCULAR     0.35             0          0          0          1                    
43               CIRCULAR     0.35             0          0          0          1                    
44               CIRCULAR     0.35             0          0          0          1                    
45               CIRCULAR     0.35             0          0          0          1                    
46               CIRCULAR     0.35             0          0          0          1                    
47               CIRCULAR     0.35             0          0          0          1                    
48               CIRCULAR     0.25             0          0          0          1                    
49               CIRCULAR     0.25             0          0          0          1                    
50               CIRCULAR     0.2              0          0          0          1                    
51               CIRCULAR     0.15             0          0          0          1                    
52               CIRCULAR     0.25             0          0          0          1                    
53               CIRCULAR     0.15             0          0          0          1                    
54               CIRCULAR     0.15             0          0          0          1                    
55               CIRCULAR     0.15             0          0          0          1                    
56               CIRCULAR     0.2              0          0          0          1                    
57               CIRCULAR     0.25             0          0          0          1                    
58               CIRCULAR     0.25             0          0          0          1                    
59               CIRCULAR     0.25             0          0          0          1                    
60               CIRCULAR     0.2              0          0          0          1                    
61               CIRCULAR     0.2              0          0          0          1                    
62               CIRCULAR     0.15             0          0          0          1                    
63               CIRCULAR     0.15             0          0          0          1                    
64               CIRCULAR     0.15             0          0          0          1                    
65               CIRCULAR     0.175            0          0          0          1                    
66               CIRCULAR     0.3              0          0          0          1                    
67               CIRCULAR     0.3              0          0          0          1                    
68               CIRCULAR     0.3              0          0          0          1                    
69               CIRCULAR     0.3              0          0          0          1                    
70               CIRCULAR     0.35             0          0          0          1                    
71               CIRCULAR     0.35             0          0          0          1                    
72               CIRCULAR     0.35             0          0          0          1                    
73               CIRCULAR     0.35             0          0          0          1                    
74               CIRCULAR     0.4              0          0          0          1                    
75               CIRCULAR     0.45             0          0          0          1                    
76               CIRCULAR     0.45             0          0          0          1                    
77               CIRCULAR     0.3              0          0          0          1                    
78               CIRCULAR     0.25             0          0          0          1                    
79               CIRCULAR     0.25             0          0          0          1                    
80               CIRCULAR     0.2              0          0          0          1                    
81               CIRCULAR     0.2              0          0          0          1                    
82               CIRCULAR     0.15             0          0          0          1                    
83               CIRCULAR     0.15             0          0          0          1                    
84               CIRCULAR     0.15             0          0          0          1                    
85               CIRCULAR     0.15             0          0          0          1                    
86               CIRCULAR     0.2              0          0          0          1                    
87               CIRCULAR     0.15             0          0          0          1                    
88               CIRCULAR     0.15             0          0          0          1                    
89               CIRCULAR     0.15             0          0          0          1                    
90               CIRCULAR     0.2              0          0          0          1                    
91               CIRCULAR     0.6              0          0          0          1                    
92               CIRCULAR     0.6              0          0          0          1                    
93               CIRCULAR     0.6              0          0          0          1                    
94               CIRCULAR     0.6              0          0          0          1                    
95               CIRCULAR     0.6              0          0          0          1                    
96               CIRCULAR     0.6              0          0          0          1                    
97               CIRCULAR     0.6              0          0          0          1                    
98               CIRCULAR     1                0          0          0          1                    
99               CIRCULAR     1                0          0          0          1                    
100              CIRCULAR     1                0          0          0          1                    
101              CIRCULAR     1                0          0          0          1                    
102              CIRCULAR     1                0          0          0          1                    
103              CIRCULAR     1                0          0          0          1                    
104              CIRCULAR     1                0          0          0          1                    
105              CIRCULAR     1                0          0          0          1                    
119              CIRCULAR     0.6              0          0          0          1                    
120              CIRCULAR     0.4              0          0          0          1                    
121              CIRCULAR     0.4              0          0          0          1                    
122              CIRCULAR     0.35             0          0          0          1                    
123              CIRCULAR     0.25             0          0          0          1                    
124              CIRCULAR     0.25             0          0          0          1                    
125              CIRCULAR     0.25             0          0          0          1                    
137              CIRCULAR     0.3              0          0          0          1                    
139              CIRCULAR     0.2              0          0          0          1                    
27               CIRCULAR     0.3              0          0          0          1                    
138              CIRCULAR     1                0          0          0          1                    
140              CIRCULAR     0.4              0          0          0          1                    
_570-570a        CIRCULAR     0.2              0          0          0          1                    
501_SW-403       CIRCULAR     0.15             0          0          0          1                    
520-L337         CIRCULAR     0.7              0          0          0          1                    
528_SW-529a_SW   CIRCULAR     0.15             0          0          0          1                    
529_SW-L328      CIRCULAR     0.15             0          0          0          1                    
529a_SW-529_SW   CIRCULAR     0.15             0          0          0          1                    
529b_SW-529_SW   CIRCULAR     0.15             0          0          0          1                    
536_SW-538_SW    CIRCULAR     0.15             0          0          0          1                    
538_SW-L349      CIRCULAR     0.15             0          0          0          1                    
538a_SW-538_SW   CIRCULAR     0.15             0          0          0          1                    
541-542          CIRCULAR     0.3              0          0          0          1                    
541a-541b        CIRCULAR     0.3              0          0          0          1                    
541b-541c        CIRCULAR     0.3              0          0          0          1                    
541c-541d        CIRCULAR     0.3              0          0          0          1                    
541d-541         CIRCULAR     0.3              0          0          0          1                    
541i-541k        CIRCULAR     0.3              0          0          0          1                    
541k-541L        CIRCULAR     0.3              0          0          0          1                    
541L-541m        CIRCULAR     0.3              0          0          0          1                    
541m-541n        CIRCULAR     0.3              0          0          0          1                    
541n-541o        CIRCULAR     0.3              0          0          0          1                    
541o-541p        CIRCULAR     0.3              0          0          0          1                    
541p-541q        CIRCULAR     0.3              0          0          0          1                    
541q-541a        CIRCULAR     0.3              0          0          0          1                    
542-543          CIRCULAR     0.3              0          0          0          1                    
543-L282         CIRCULAR     0.3              0          0          0          1                    
54-555           CIRCULAR     0.6              0          0          0          1                    
550_SW-560_SW    CIRCULAR     0.15             0          0          0          1                    
550a_SW-550_SW   CIRCULAR     0.15             0          0          0          1                    
560_SW-570       CIRCULAR     0.15             0          0          0          1                    
570a-54          CIRCULAR     0.2              0          0          0          1                    
590b-590c        CIRCULAR     0.35             0          0          0          1                    
590c-520         CIRCULAR     0.35             0          0          0          1                    
L280-L287        CIRCULAR     0.7              0          0          0          1                    
L281-L371        CIRCULAR     0.35             0          0          0          1                    
L282-L281        CIRCULAR     0.35             0          0          0          1                    
L284-L280        CIRCULAR     0.7              0          0          0          1                    
L285-L284        CIRCULAR     0.7              0          0          0          1                    
L286-L285        CIRCULAR     0.7              0          0          0          1                    
L319-L373        CIRCULAR     0.5              0          0          0          1                    
L321-L322        CIRCULAR     0.5              0          0          0          1                    
L322-L319        CIRCULAR     0.5              0          0          0          1                    
L322-L325        CIRCULAR     0.5              0          0          0          1                    
L323-L321        CIRCULAR     0.5              0          0          0          1                    
L324-L323        CIRCULAR     0.5              0          0          0          1                    
L325-520         CIRCULAR     0.5              0          0          0          1                    
L328-L334        CIRCULAR     0.15             0          0          0          1                    
L334-550a_SW     CIRCULAR     0.15             0          0          0          1                    
L336-L334        CIRCULAR     0.15             0          0          0          1                    
L337-L286        CIRCULAR     0.7              0          0          0          1                    
L349-L336        CIRCULAR     0.15             0          0          0          1                    
L354-L355        CIRCULAR     0.25             0          0          0          1                    
L355-L357        CIRCULAR     0.25             0          0          0          1                    
L361-L362        CIRCULAR     0.15             0          0          0          1                    
L362-L343        CIRCULAR     0.15             0          0          0          1                    
L364-L365        CIRCULAR     0.15             0          0          0          1                    
L365-L356        CIRCULAR     0.15             0          0          0          1                    
L374-L324        CIRCULAR     0.45             0          0          0          1                    
L381-E801        CIRCULAR     0.15             0          0          0          1                    
L383-L385        CIRCULAR     0.15             0          0          0          1                    
L384-L386        CIRCULAR     0.2              0          0          0          1                    
L385-L374        CIRCULAR     0.15             0          0          0          1                    
L386-L326        CIRCULAR     0.2              0          0          0          1                    
L391-L359        CIRCULAR     0.15             0          0          0          1                    
L397-L387        CIRCULAR     0.15             0          0          0          1                    
L399-L397        CIRCULAR     0.15             0          0          0          1                    
L403-L405        CIRCULAR     0.15             0          0          0          1                    
L405-L399        CIRCULAR     0.15             0          0          0          1                    
141              RECT_OPEN    1                1          0          0         

[POLLUTANTS]
;;Name           Units  Crain      Cgw        Crdii      Kdecay     SnowOnly   Co-Pollutant     Co-Frac    Cdwf       Cinit     
;;-------------- ------ ---------- ---------- ---------- ---------- ---------- ---------------- ---------- ---------- ----------
COD              MG/L   100        0.0        0.0        0.0        NO         *                0.0        500        0.0       
NH4              MG/L   0.0        0.0        0.0        0.0        NO         *                0.0        50         0.0       
P                MG/L   0.0        0.0        0.0        0.0        NO         *                0.0        1          0.0       

[LANDUSES]
;;               Sweeping   Fraction   Last      
;;Name           Interval   Available  Swept     
;;-------------- ---------- ---------- ----------
Strasse          0          0          0         

[COVERAGES]
;;Subcatchment   Land Use         Percent   
;;-------------- ---------------- ----------
Sub12            Strasse          30        
sub1             Strasse          30        
Sub2             Strasse          30        
Sub3             Strasse          30        
Sub4             Strasse          30        
Sub5             Strasse          30        
Sub6             Strasse          30        
Sub7             Strasse          30        
Sub8             Strasse          30        
Sub9             Strasse          30        
Sub10            Strasse          30        
Sub11            Strasse          30        
Sub13            Strasse          30        
D0165T           Strasse          30        
D0170T           Strasse          30        
D0175RT          Strasse          30        
D0180T           Strasse          30        
D0185RT          Strasse          30        
D0190T           Strasse          30        
D0195T           Strasse          30        
D0200T           Strasse          30        
D0205T           Strasse          30        
D0210T           Strasse          30        
D0215T           Strasse          30        
D0225T           Strasse          30        
D0230T           Strasse          30        
D0235T           Strasse          30        
D0240T           Strasse          30        
D0255T           Strasse          30        
D0270T           Strasse          30        
D0275T           Strasse          30        
D0280T           Strasse          30        
D0285T           Strasse          30        
D0290T           Strasse          30        
D0300T           Strasse          30        
D0305T           Strasse          30        
D0310T           Strasse          30        
D0315T           Strasse          30        
D0320T           Strasse          30        
D0325RT          Strasse          30        
D0330RT          Strasse          30        
D0335RT          Strasse          30        
D0340T           Strasse          30        
D0345RT          Strasse          30        
D0350RT          Strasse          30        
D0355RT          Strasse          30        
D0360RT          Strasse          30        
D0365RT          Strasse          30        
D0370RT          Strasse          30        
D0375T           Strasse          30        
D0380RT          Strasse          30        
D0385T           Strasse          30        
D0390RT          Strasse          30        
D0395RT          Strasse          30        
D0400RT          Strasse          30        
D0410RT          Strasse          30        
D0420T           Strasse          30        
D0445T           Strasse          30        
D0615R           Strasse          30        
D0625R           Strasse          30        
D0660R           Strasse          30        
D0680R           Strasse          30        

[LOADINGS]
;;Subcatchment   Pollutant        Buildup   
;;-------------- ---------------- ----------

[BUILDUP]
;;Land Use       Pollutant        Function   Coeff1     Coeff2     Coeff3     Per Unit  
;;-------------- ---------------- ---------- ---------- ---------- ---------- ----------
Strasse          COD              EXP        100        1          0          AREA      
Strasse          NH4              NONE       0          0          0          AREA      
Strasse          P                NONE       0          0          0          AREA      

[WASHOFF]
;;Land Use       Pollutant        Function   Coeff1     Coeff2     SweepRmvl  BmpRmvl   
;;-------------- ---------------- ---------- ---------- ---------- ---------- ----------
Strasse          COD              EXP        0.1        2          0.0        0.0       
Strasse          NH4              NONE       0.0        0.0        0.0        0.0       
Strasse          P                NONE       0          0.0        0.0        0.0       

[DWF]
;;Node           Constituent      Baseline   Patterns  
;;-------------- ---------------- ---------- ----------
109              FLOW             0.61      
114              FLOW             0.12       "daily_var"
114              COD              500        "COD"
114              NH4              50         "NH4"
114              P                1         
22               FLOW             0.32      
22               COD              500        "COD"
22               NH4              50         "NH4"
30               FLOW             0.08      
30               COD              500        "COD"
30               NH4              50         "NH4"
53               FLOW             0.1        "daily_var"
53               COD              500        "COD"
53               NH4              50         "NH4"
56               FLOW             0.77      
56               COD              500        "COD"
56               NH4              50         "NH4"
57               FLOW             0.12      
57               COD              500        "COD"
57               NH4              50         "NH4"
58               FLOW             0.25      
58               COD              500        "COD"
58               NH4              50         "NH4"
65               FLOW             0.1       
65               COD              500        "COD"
65               NH4              50         "NH4"
68               FLOW             0.41      
68               COD              500        "COD"
68               NH4              50         "NH4"
74               FLOW             0.39      
74               COD              500        "COD"
74               NH4              50         "NH4"
82               FLOW             0.1        "daily_var"
82               COD              500        "COD"
82               NH4              50         "NH4"
86               FLOW             0.76      
86               COD              500        "COD"
86               NH4              50         "NH4"
96               FLOW             0.13      
96               COD              500        "COD"
96               NH4              50         "NH4"
97               FLOW             0.35      
97               COD              500        "COD"
97               NH4              50         "NH4"
500_SW           FLOW             0.1        "daily_var"
500_SW           COD              500        "COD"
500_SW           NH4              50         "NH4"
501_SW           FLOW             0.09      
501_SW           COD              500        "COD"
501_SW           NH4              50         "NH4"
503_SW           FLOW             0.01       "daily_var"
503_SW           COD              500        "COD"
503_SW           NH4              50         "NH4"
507_SW           FLOW             0.01       "daily_var"
507_SW           COD              500        "COD"
507_SW           NH4              50         "NH4"
51_SW            FLOW             0.1       
51_SW            COD              500        "COD"
51_SW            NH4              50         "NH4"
511_SW           FLOW             0.07      
511_SW           COD              500        "COD"
511_SW           NH4              50         "NH4"
512_SW           FLOW             0.06      
512_SW           COD              500        "COD"
512_SW           NH4              50         "NH4"
514_SW           FLOW             0.02      
514_SW           COD              500        "COD"
514_SW           NH4              50         "NH4"
514a             FLOW             0.1        "daily_var"
514a             COD              500        "COD"
514a             NH4              50         "NH4"
515              FLOW             0.13       "daily_var"
515              COD              500        "COD"
515              NH4              50         "NH4"
517              FLOW             0.02       "daily_var"
517              COD              500        "COD"
517              NH4              50         "NH4"
517a             FLOW             0.11       "daily_var"
517a             COD              500        "COD"
517a             NH4              50         "NH4"
519              FLOW             0.24       "daily_var"
519              COD              500        "COD"
519              NH4              50         "NH4"
520              FLOW             0.11       "daily_var"
520              COD              500        "COD"
520              NH4              50         "NH4"
521_SW           FLOW             0.18      
521_SW           COD              500        "COD"
521_SW           NH4              50         "NH4"
528_SW           FLOW             0.02       "daily_var"
528_SW           COD              500        "COD"
528_SW           NH4              50         "NH4"
529_SW           FLOW             0.07       "daily_var"
529_SW           COD              500        "COD"
529_SW           NH4              50         "NH4"
530              FLOW             0.07       "daily_var"
530              COD              500        "COD"
530              NH4              50         "NH4"
536_SW           FLOW             0.02      
536_SW           COD              500        "COD"
536_SW           NH4              50         "NH4"
538a_SW          FLOW             0.07      
538a_SW          COD              500        "COD"
538a_SW          NH4              50         "NH4"
539_SW           FLOW             0.05       "daily_var"
539_SW           COD              500        "COD"
539_SW           NH4              50         "NH4"
540_SW           FLOW             0.03       "daily_var"
540_SW           COD              500        "COD"
540_SW           NH4              50         "NH4"
540a_SW          FLOW             0.04       "daily_var"
540a_SW          COD              500        "COD"
540a_SW          NH4              50         "NH4"
546              FLOW             0.05       "daily_var"
546              COD              500        "COD"
546              NH4              50         "NH4"
548              FLOW             0.08       "daily_var"
548              COD              500        "COD"
548              NH4              50         "NH4"
550_SW           FLOW             0.02      
550_SW           COD              500        "COD"
550_SW           NH4              50         "NH4"
560_SW           FLOW             0.04      
560_SW           COD              500        "COD"
560_SW           NH4              50         "NH4"

[PATTERNS]
;;Name           Type       Multipliers
;;-------------- ---------- -----------
daily_var        HOURLY     0.19617633 0.208076532 0.149387231 0.594984709 1.596094748 2.030248539
daily_var                   1.816126911 1.392969512 1.258369959 1.095608074 1.169754923 1.186609313
daily_var                   0.858094024 0.755391039 0.913167818 1.13028276 1.362597631 1.483675764
daily_var                   1.261589309 1.194744761 1.068237281 0.637394065 0.316297446 0.324121319
;
weekend_var      WEEKEND    1.797253236 1.274803878 1.515578258 0.645941233 0.439802227 0.595619499
weekend_var                 1.024703403 1.438539881 1.38499375 1.435455354 1.323259837 1.146317206
weekend_var                 1.450448134 1.441372047 1.308542212 1.226950124 1.09990839 0.950301854
weekend_var                 1.060016093 0.962726144 0.974859576 1.175743502 1.573013294 1.186728118
;
NH4              HOURLY     0.2   1.15  0.1   1.1   1     1.05 
NH4                         1.2   1.18  1.2   1.1   1.05  1    
NH4                         0.85  0.9   0.95  1     0.95  1.05 
NH4                         1     1     1     1     1     1    
;
TSS              HOURLY     0.2   0.35  0.3   0.32  0.65  0.75 
TSS                         0.95  1.25  1.65  1.55  1.55  1.3  
TSS                         1.15  1     1.05  1.15  1.2   1.2  
TSS                         1.1   1.05  0.9   0.85  0.85  0.75 
;
CSBmf            HOURLY     0.15  0.5   0.4   0.5   0.7   0.8  
CSBmf                       1.1   1.3   1.5   1.45  1.35  1.25 
CSBmf                       1.05  1     1.1   1.1   1.15  1.15 
CSBmf                       1     0.95  0.9   0.8   0.95  0.9  
;
COD              HOURLY     0.99  0.3   0.7   0.5   0.85  1    
COD                         1.2   1.35  1.45  1.25  1.1   0.9  
COD                         0.9   0.94  1.05  1.15  1.11  1.03 
COD                         1.01  0.8   1     0.95  1.1   1.03 

[REPORT]
;;Reporting Options
INPUT      NO
CONTROLS   NO
SUBCATCHMENTS NONE
NODES 555 RÜBRumlikon
LINKS 54-555 27

[TAGS]

[MAP]
DIMENSIONS 697715.200 248988.497 700916.885 252018.930
Units      Meters

[COORDINATES]
;;Node           X-Coord            Y-Coord           
;;-------------- ------------------ ------------------
541f             699454.549         251098.312        
541g             699448.130         251081.750        
541h             699414.800         251015.430        
10               699447.030         251372.865        
101              699725.785         251784.859        
103              699769.019         251782.998        
104              699817.425         251791.686        
106              699836.456         251790.238        
107              699851.763         251762.725        
108              699863.761         251749.693        
109              699871.002         251731.076        
114              699855.280         251793.961        
120              699701.624         251792.720        
123              699704.520         251823.956        
126              699718.586         251854.158        
127              699738.238         251852.710        
129              699740.927         251869.258        
132              699747.133         251893.503        
133              699748.581         251900.743        
135              699743.410         251914.602        
14               699581.546         251446.268        
19               699633.608         251628.214        
15               699589.630         251476.151        
16               699605.351         251533.276        
17               699622.624         251592.334        
18               699630.919         251618.906        
22               699640.124         251648.693        
23               699617.163         251685.463        
24               699589.754         251713.492        
25               699576.515         251783.825        
26               699672.498         251630.334        
27               699714.284         251641.091        
28               699721.731         251654.330        
29               699764.758         251656.813        
30               699804.889         251658.881        
38               699777.997         251611.717        
39               699775.515         251556.279        
40               699773.446         251504.149        
41               699770.964         251451.193        
42               699809.026         251438.326        
43               699830.539         251432.534        
44               699844.192         251394.058        
45               699875.635         251394.472        
46               699887.219         251346.067        
47               699900.169         251296.503        
48               699915.063         251250.166        
49               699941.955         251203.416        
50               700001.117         251205.898        
51               700022.217         251222.447        
52               699998.221         251260.923        
53               700023.458         251277.472        
54               700043.316         251237.341        
55               700040.420         251253.476        
56               700067.312         251270.025        
57               700078.896         251209.621        
58               699970.088         251231.549        
59               699946.092         251233.203        
60               699928.716         251276.231        
61               699915.890         251323.395        
62               699903.065         251367.249        
63               699924.165         251373.455        
64               699932.439         251369.318        
65               699946.506         251323.395        
66               699946.919         251390.004        
67               699960.572         251384.625        
68               699978.362         251323.395        
69               699892.308         251414.000        
7                699571.519         251425.925        
70               699875.759         251459.095        
71               699872.036         251504.977        
73               699872.450         251592.272        
74               699828.595         251478.912        
75               699829.836         251538.902        
76               699814.529         251583.584        
77               699887.757         251592.686        
78               699890.240         251590.617        
79               699894.791         251593.513        
8                699570.795         251434.820        
80               699896.445         251604.684        
81               699905.547         251631.990        
82               699908.443         251644.401        
83               699919.200         251565.794        
84               699924.992         251567.449        
85               699932.439         251594.341        
86               699940.714         251630.334        
87               699875.759         251649.779        
88               699864.175         251654.330        
89               699841.834         251663.846        
9                699525.492         251382.174        
90               699837.697         251667.156        
91               699778.121         251709.769        
92               699707.375         251702.736        
93               699658.142         251705.218        
94               699645.317         251668.397        
96               699674.484         251768.104        
97               699681.517         251770.586        
99               699695.584         251776.378        
500_SW           699670.827         250051.502        
501_RW           699781.340         250065.090        
501_SW           699781.350         250065.080        
502_SW           699741.610         250042.000        
503_SW           699720.520         250055.880        
504_SW           699710.960         250072.310        
507_SW           699705.080         250074.750        
51__RW           699609.010         250073.450        
51_SW            699609.010         250073.440        
511_RW           699774.590         250122.240        
511_SW           699774.600         250122.240        
512_RW           699715.530         250133.130        
512_SW           699715.520         250133.140        
513_RW           699669.260         250128.760        
513_SW           699669.270         250128.770        
513a_SW          699681.130         250130.420        
514_RW           699643.870         250114.190        
514_SW           699643.870         250114.180        
514a             699640.910         250166.430        
515              699600.870         250192.270        
516              699547.260         250217.080        
517              699479.650         250243.810        
517a             699486.430         250245.190        
518              699454.040         250201.780        
519              699426.440         250153.540        
520              699377.100         250124.560        
521_SW           699579.410         250030.180        
521a_SW          699595.150         250046.150        
528_SW           699540.120         249998.400        
529_SW           699487.889         250030.730        
529a_SW          699496.276         250032.283        
529b_RW          699509.680         250060.830        
529b_SW          699509.670         250060.830        
530              699457.558         249992.714        
536_SW           699453.700         250130.570        
538_SW           699465.679         250112.580        
538a_RW          699480.720         250113.920        
538a_SW          699480.730         250113.910        
539_SW           699435.740         250065.080        
540_SW           699399.630         250025.580        
540a_SW          699409.840         250027.980        
541              699317.100         250302.060        
541a             699416.520         250521.910        
541b             699395.810         250465.570        
541c             699369.680         250411.720        
541d             699343.630         250357.820        
541i             699390.140         250954.040        
541k             699366.290         250894.190        
541L             699350.190         250826.130        
541m             699334.410         250758.000        
541n             699334.410         250730.620        
541o             699341.220         250705.420        
541p             699372.760         250642.970        
541q             699404.270         250580.450        
542              699299.240         250255.620        
543              699288.000         250182.490        
544              699267.950         250111.210        
545              699246.210         250059.420        
546              699352.170         250075.250        
546a             699358.130         250078.010        
547              699323.860         250079.690        
548              699309.960         250061.040        
549              699244.230         250048.540        
54a              699186.140         250026.430        
550_SW           699367.140         250040.840        
550a_SW          699373.770         250041.610        
560_SW           699338.130         250009.440        
570              699276.210         250002.190        
570a             699230.090         250014.820        
590b             699371.750         250176.400        
590c             699358.870         250144.630        
555              699121.480         249997.650        
Bacheinl_RÜB_Rum 699327.941         251359.730        
RÜBRumlikon      699538.256         251450.663        

[VERTICES]
;;Link           X-Coord            Y-Coord           
;;-------------- ------------------ ------------------
8                699570.373         251434.140        
69               699872.083         251548.565        
69               699872.083         251548.565        
501_SW-403       699758.450         250051.780        
501_SW-403       699741.621         250042.006        
528_SW-529a_SW   699528.550         250007.030        
529_SW-L328      699481.135         250023.548        
529_SW-L328      699460.369         249996.391        
529a_SW-529_SW   699494.623         250032.328        
529a_SW-529_SW   699494.620         250032.330        
529b_SW-529_SW   699503.271         250052.471        
529b_SW-529_SW   699487.088         250031.334        
538_SW-L349      699441.182         250073.505        
538a_SW-538_SW   699473.620         250113.315        
538a_SW-538_SW   699466.513         250112.720        
L328-L334        699454.049         249994.705        
L334-550a_SW     699399.628         250025.582        
L336-L334        699404.804         250026.796        
L349-L336        699429.729         250056.469        
L354-L355        699661.680         250124.411        
L361-L362        699588.764         250043.850        
L362-L343        699540.171         249998.442        
L364-L365        699661.680         250124.411        
L365-L356        699609.017         250073.448        
L381-E801        699579.420         250030.190        
L391-L359        699671.253         250056.222        
L391-L359        699657.764         250059.954        

[Polygons]
;;Subcatchment   X-Coord            Y-Coord           
;;-------------- ------------------ ------------------
Sub12            700077.568         251277.033        
Sub12            700099.125         251258.171        
Sub12            700113.496         251269.848        
Sub12            700111.700         251287.812        
Sub12            700100.921         251292.302        
Sub12            700090.143         251299.488        
sub1             699864.900         251794.422        
sub1             699864.900         251794.422        
sub1             699864.900         251794.422        
sub1             699864.900         251794.422        
sub1             699873.319         251797.359        
sub1             699887.750         251775.680        
sub1             699862.601         251769.392        
sub1             699859.418         251793.443        
Sub2             699882.361         251755.919        
Sub2             699897.631         251757.716        
Sub2             699907.511         251733.465        
Sub2             699886.632         251728.835        
Sub2             699874.278         251748.734        
Sub3             699970.384         251322.991        
Sub3             699972.190         251300.655        
Sub3             699945.563         251300.263        
Sub3             699953.590         251320.038        
Sub4             699984.755         251253.830        
Sub4             699995.534         251251.135        
Sub4             699997.330         251234.070        
Sub4             699982.371         251226.061        
Sub4             699972.181         251247.543        
Sub5             699918.545         251668.533        
Sub5             699936.253         251666.998        
Sub5             699936.949         251646.997        
Sub5             699920.699         251639.361        
Sub5             699912.084         251656.003        
Sub6             699963.199         251619.394        
Sub6             699952.420         251629.274        
Sub6             699947.031         251643.645        
Sub6             699945.235         251649.035        
Sub6             699966.791         251659.813        
Sub6             699974.539         251637.012        
Sub6             699965.893         251622.089        
Sub6             699964.995         251620.292        
Sub7             699993.530         251340.595        
Sub7             699997.446         251346.860        
Sub7             700015.458         251336.092        
Sub7             700021.527         251320.429        
Sub7             699998.033         251307.899        
Sub7             699985.895         251328.260        
Sub8             700095.233         251234.968        
Sub8             700105.323         251232.522        
Sub8             700117.266         251224.886        
Sub8             700113.350         251207.070        
Sub8             700101.212         251206.874        
Sub8             700090.742         251222.393        
Sub9             700028.771         251294.194        
Sub9             700028.771         251294.194        
Sub9             700030.729         251293.411        
Sub9             700029.750         251303.396        
Sub9             700042.281         251306.333        
Sub9             700055.790         251288.712        
Sub9             700042.476         251275.007        
Sub9             700028.967         251294.781        
Sub10            699829.268         251476.469        
Sub10            699855.307         251475.490        
Sub10            699853.545         251457.086        
Sub10            699842.189         251442.011        
Sub10            699829.855         251472.553        
Sub11            699812.039         251656.199        
Sub11            699813.409         251649.934        
Sub11            699819.870         251657.569        
Sub11            699814.780         251662.464        
Sub13            699651.579         251797.807        
Sub13            699665.140         251799.098        
Sub13            699667.400         251796.354        
Sub13            699669.499         251775.044        
Sub13            699659.974         251766.004        
Sub13            699641.732         251765.519        
Sub13            699647.220         251795.869        
D0165T           699414.204         250051.575        
D0170T           699374.044         250053.250        
D0175RT          699406.652         250137.842        
D0180T           699448.439         250148.147        
D0185RT          699439.984         250188.762        
D0190T           699489.598         250144.731        
D0195T           699594.142         250120.386        
D0200T           699620.062         250027.002        
D0205T           699483.540         250056.512        
D0210T           699516.778         250030.885        
D0215T           699558.247         250028.866        
D0225T           699695.234         249954.781        
D0230T           699706.727         250021.100        
D0235T           699792.214         250048.082        
D0240T           699707.504         250047.193        
D0255T           699295.144         249994.697        
D0270T           699476.862         250008.520        
D0275T           699454.031         249969.225        
D0280T           699412.406         250004.637        
D0285T           699364.103         250015.664        
D0290T           699282.984         250048.585        
D0300T           699303.881         250113.002        
D0305T           699690.264         250072.199        
D0310T           699647.801         250064.938        
D0315T           699716.046         250085.400        
D0320T           699735.305         250063.656        
D0325RT          699773.595         250113.904        
D0330RT          699714.863         250149.521        
D0335RT          699673.109         250178.065        
D0340T           699666.837         250112.420        
D0345RT          699631.685         250175.983        
D0350RT          699595.113         250220.621        
D0355RT          699521.281         250254.387        
D0360RT          699466.433         250234.619        
D0365RT          699445.370         250239.064        
D0370RT          699414.487         250238.807        
D0375T           699375.515         250251.687        
D0380RT          699372.319         250165.321        
D0385T           699333.690         250208.414        
D0390RT          699369.471         250195.765        
D0395RT          699330.992         250140.380        
D0400RT          699324.958         250070.593        
D0410RT          699371.471         250104.205        
D0420T           699320.471         250177.248        
D0445T           699444.246         250092.700        
D0615R           699594.142         250120.386        
D0625R           699507.925         250063.501        
D0660R           699792.214         250048.082        
D0680R           699666.837         250112.420        
rdii1            699520.985         250366.130        
rdii1            699436.781         250467.656        
rdii1            699413.685         250342.553        
rdii2            699736.820         251479.958        
rdii2            699739.133         251579.398        
rdii2            699666.287         251555.502        

[SYMBOLS]
;;Gage           X-Coord            Y-Coord           
;;-------------- ------------------ ------------------
rain_gauge       699740.271         250876.260        


[BACKDROP]
FILE       "D:\Users\blumensaat\2015_faf2\4_workspace\se_swmm\_inputData\Backdrop_Fehraltorf_Swissimage.bmp"
DIMENSIONS 697430.000 248497.000 701300.000 252160.000
